Si Ar
 1.0000000000000000
    21.7199999999999989    0.0000000000000000    0.0000000000000000
     0.0000000000000000   21.7199999999999989    0.0000000000000000
     0.0000000000000000    0.0000000000000000   55.4399999999999977
 Si  Ar 
 1055  22
Cartesian
  0.0000000000000000  0.0000000000000000  0.0000000000000000
  0.0000000000000000  2.7149999999999999  2.7149999999999999
  2.7149999999999999  0.0000000000000000  2.7149999999999999
  2.7149999999999999  2.7149999999999999  0.0000000000000000
  1.3574999999999999  1.3574999999999999  1.3574999999999999
  5.4299999999999997  0.0000000000000000  0.0000000000000000
  5.4299999999999997  2.7149999999999999  2.7149999999999999
  6.7874999999999996  1.3574999999999999  1.3574999999999999
  8.1449999999999996  0.0000000000000000  2.7149999999999999
  8.1449999999999996  2.7149999999999999  0.0000000000000000
 10.8599999999999994  0.0000000000000000  0.0000000000000000
 10.8599999999999994  2.7149999999999999  2.7149999999999999
 13.5749999999999993  0.0000000000000000  2.7149999999999999
 13.5749999999999993  2.7149999999999999  0.0000000000000000
 12.2174999999999994  1.3574999999999999  1.3574999999999999
 16.2899999999999991  0.0000000000000000  0.0000000000000000
 16.2899999999999991  2.7149999999999999  2.7149999999999999
 17.6475000000000009  1.3574999999999999  1.3574999999999999
 19.0049999999999990  0.0000000000000000  2.7149999999999999
 19.0049999999999990  2.7149999999999999  0.0000000000000000
  0.0000000000000000  5.4299999999999997  0.0000000000000000
  2.7149999999999999  5.4299999999999997  2.7149999999999999
  1.3574999999999999  6.7874999999999996  1.3574999999999999
  4.0724999999999998  4.0724999999999998  1.3574999999999999
  5.4299999999999997  5.4299999999999997  0.0000000000000000
  6.7874999999999996  6.7874999999999996  1.3574999999999999
  9.5024999999999995  4.0724999999999998  1.3574999999999999
  8.1449999999999996  5.4299999999999997  2.7149999999999999
 10.8599999999999994  5.4299999999999997  0.0000000000000000
 13.5749999999999993  5.4299999999999997  2.7149999999999999
 12.2174999999999994  6.7874999999999996  1.3574999999999999
 14.9324999999999992  4.0724999999999998  1.3574999999999999
 16.2899999999999991  5.4299999999999997  0.0000000000000000
 17.6475000000000009  6.7874999999999996  1.3574999999999999
 20.3625000000000007  4.0724999999999998  1.3574999999999999
 19.0049999999999990  5.4299999999999997  2.7149999999999999
  0.0000000000000000  8.1449999999999996  2.7149999999999999
  2.7149999999999999  8.1449999999999996  0.0000000000000000
  4.0724999999999998  9.5024999999999995  1.3574999999999999
  5.4299999999999997  8.1449999999999996  2.7149999999999999
  8.1449999999999996  8.1449999999999996  0.0000000000000000
  9.5024999999999995  9.5024999999999995  1.3574999999999999
 10.8599999999999994  8.1449999999999996  2.7149999999999999
 13.5749999999999993  8.1449999999999996  0.0000000000000000
 14.9324999999999992  9.5024999999999995  1.3574999999999999
 16.2899999999999991  8.1449999999999996  2.7149999999999999
 19.0049999999999990  8.1449999999999996  0.0000000000000000
 20.3625000000000007  9.5024999999999995  1.3574999999999999
  0.0000000000000000 10.8599999999999994  0.0000000000000000
  0.0000000000000000 13.5749999999999993  2.7149999999999999
  2.7149999999999999 10.8599999999999994  2.7149999999999999
  2.7149999999999999 13.5749999999999993  0.0000000000000000
  1.3574999999999999 12.2174999999999994  1.3574999999999999
  5.4299999999999997 10.8599999999999994  0.0000000000000000
  5.4299999999999997 13.5749999999999993  2.7149999999999999
  6.7874999999999996 12.2174999999999994  1.3574999999999999
  8.1449999999999996 10.8599999999999994  2.7149999999999999
  8.1449999999999996 13.5749999999999993  0.0000000000000000
 10.8599999999999994 10.8599999999999994  0.0000000000000000
 10.8599999999999994 13.5749999999999993  2.7149999999999999
 13.5749999999999993 10.8599999999999994  2.7149999999999999
 13.5749999999999993 13.5749999999999993  0.0000000000000000
 12.2174999999999994 12.2174999999999994  1.3574999999999999
 16.2899999999999991 10.8599999999999994  0.0000000000000000
 16.2899999999999991 13.5749999999999993  2.7149999999999999
 17.6475000000000009 12.2174999999999994  1.3574999999999999
 19.0049999999999990 10.8599999999999994  2.7149999999999999
 19.0049999999999990 13.5749999999999993  0.0000000000000000
  0.0000000000000000 16.2899999999999991  0.0000000000000000
  2.7149999999999999 16.2899999999999991  2.7149999999999999
  1.3574999999999999 17.6475000000000009  1.3574999999999999
  4.0724999999999998 14.9324999999999992  1.3574999999999999
  5.4299999999999997 16.2899999999999991  0.0000000000000000
  6.7874999999999996 17.6475000000000009  1.3574999999999999
  9.5024999999999995 14.9324999999999992  1.3574999999999999
  8.1449999999999996 16.2899999999999991  2.7149999999999999
 10.8599999999999994 16.2899999999999991  0.0000000000000000
 13.5749999999999993 16.2899999999999991  2.7149999999999999
 12.2174999999999994 17.6475000000000009  1.3574999999999999
 14.9324999999999992 14.9324999999999992  1.3574999999999999
 16.2899999999999991 16.2899999999999991  0.0000000000000000
 17.6475000000000009 17.6475000000000009  1.3574999999999999
 20.3625000000000007 14.9324999999999992  1.3574999999999999
 19.0049999999999990 16.2899999999999991  2.7149999999999999
  0.0000000000000000 19.0049999999999990  2.7149999999999999
  2.7149999999999999 19.0049999999999990  0.0000000000000000
  4.0724999999999998 20.3625000000000007  1.3574999999999999
  5.4299999999999997 19.0049999999999990  2.7149999999999999
  8.1449999999999996 19.0049999999999990  0.0000000000000000
  9.5024999999999995 20.3625000000000007  1.3574999999999999
 10.8599999999999994 19.0049999999999990  2.7149999999999999
 13.5749999999999993 19.0049999999999990  0.0000000000000000
 14.9324999999999992 20.3625000000000007  1.3574999999999999
 16.2899999999999991 19.0049999999999990  2.7149999999999999
 19.0049999999999990 19.0049999999999990  0.0000000000000000
 20.3625000000000007 20.3625000000000007  1.3574999999999999
  2.8197100000000002  2.7195200000000002  5.4404700000000004
  1.5204899999999999  1.2937799999999999  6.7110000000000003
  0.0005421830000000  0.0169037000000000  5.3316499999999998
  4.1344599999999998  1.3661300000000001  4.1119300000000001
  6.7881200000000002  1.2318000000000000  6.9035000000000002
  9.5012500000000006  1.3954599999999999  4.1595100000000000
  8.1112400000000004  2.5610499999999998  5.5675699999999999
 10.8668999999999993 21.6621999999999986  5.4604499999999998
 13.4504000000000001  2.7418900000000002  5.4611400000000003
 12.2750000000000004  1.2578100000000001  6.7904299999999997
 17.7405000000000008  1.3799500000000000  6.8671400000000000
 15.0741999999999994  1.3690700000000000  4.1129199999999999
 20.4050000000000011  1.3738300000000001  4.0079099999999999
 18.9913999999999987  2.7575400000000001  5.3844200000000004
  1.4455700000000000  4.0178900000000004  4.0827600000000004
  1.4146300000000001  6.5344800000000003  6.6646299999999998
 21.6939999999999991  5.2779600000000002  5.3408100000000003
  4.1031100000000000  4.1003800000000004  6.8245600000000000
  6.8087999999999997  4.0695199999999998  4.0364899999999997
  4.0747900000000001  6.8102299999999998  4.1030699999999998
  5.5191800000000004  5.4689399999999999  5.5515100000000004
  6.8551700000000002  6.9275200000000003  6.9840499999999999
  9.4903899999999997  6.8812199999999999  4.1095199999999998
  9.3715799999999998  4.0566100000000000  6.9784400000000000
 10.7079000000000004  5.2938499999999999  5.5966899999999997
 12.1035000000000004  6.8384200000000002  6.9279999999999999
 12.2483000000000004  4.1401300000000001  4.1090499999999999
 14.8231999999999999  4.0267999999999997  6.8199600000000000
 17.5674999999999990  4.2329400000000001  4.0294400000000001
 17.5401999999999987  6.7443400000000002  6.6603500000000002
 14.9215000000000000  6.8082599999999998  4.1525900000000000
 16.1567000000000007  5.3544799999999997  5.4888500000000002
 20.4041999999999994  6.7099000000000002  4.0506300000000000
 20.5027000000000008  3.9545900000000000  6.7608199999999998
  2.6883599999999999  7.9782099999999998  5.4993200000000000
  1.4698599999999999  9.4935500000000008  4.0933000000000002
  0.1138390000000000 11.0138999999999996  5.1225600000000000
  6.8367599999999999  9.4241600000000005  4.1103600000000000
  3.8839999999999999  9.5197400000000005  6.8976400000000000
  5.3205400000000003 10.8787000000000003  5.4889900000000003
  8.2701600000000006  8.1212599999999995  5.5954100000000002
  9.4929699999999997  9.5943400000000008  7.0274400000000004
 12.2824000000000009  9.2848900000000008  4.1059599999999996
 13.5973000000000006  8.0417100000000001  5.4819599999999999
 17.6128999999999998  9.4342500000000005  4.0063500000000003
 14.6494000000000000  9.5851900000000008  6.5636999999999999
 18.9335999999999984  7.9651800000000001  5.2121599999999999
 20.5079999999999991  9.5373199999999994  6.4398000000000000
  2.6058400000000002 13.6140000000000008  5.3228700000000000
  1.2504900000000001 12.1563999999999997  6.9902800000000003
  4.0394800000000002 12.2149999999999999  4.1244399999999999
  6.6716300000000004 12.1660000000000004  6.9419599999999999
  9.6146899999999995 12.0762999999999998  4.0446200000000001
  8.1896299999999993 13.4593000000000007  5.5925900000000004
 11.0094999999999992 10.8775999999999993  5.4787499999999998
 13.5920000000000005 13.6481999999999992  5.5063399999999998
 12.3696999999999999 12.0678000000000001  6.9134099999999998
 16.1424999999999983 10.9391999999999996  5.4116799999999996
 14.8233999999999995 12.3781999999999996  3.9812900000000000
 17.5795999999999992 12.1983999999999995  6.8120799999999999
 20.2570000000000014 12.4209999999999994  4.0370299999999997
 18.8342999999999989 13.7225000000000001  5.4489500000000000
  1.2540400000000000 14.9756999999999998  4.1028599999999997
  1.2695000000000001 17.5568999999999988  6.8990099999999996
  6.8345700000000003 14.8340999999999994  4.1286300000000002
  4.1307000000000000 17.5048999999999992  3.9703100000000000
  3.9767700000000001 14.8658000000000001  6.7549900000000003
  5.5056000000000003 16.2536999999999985  5.5272800000000002
  6.7120300000000004 17.5704999999999991  7.0607899999999999
  9.4677399999999992 17.7088999999999999  4.1713399999999998
  9.5268499999999996 14.9921000000000006  6.8665300000000000
 10.7333999999999996 16.3112999999999992  5.4964300000000001
 12.1836000000000002 17.4555000000000007  6.9729599999999996
 12.2141000000000002 14.8424999999999994  4.1047200000000004
 17.6219000000000001 14.8801000000000005  4.0483599999999997
 14.9370999999999992 17.6673000000000009  4.0411400000000004
 15.0094999999999992 14.8321000000000005  6.9772800000000004
 16.2671999999999990 16.1433999999999997  5.4501600000000003
 17.5064999999999991 17.4228999999999985  6.8683399999999999
 21.6670000000000016 16.4040999999999997  5.4800899999999997
 20.2164000000000001 14.9270999999999994  6.8738700000000001
 20.2984000000000009 17.6649999999999991  4.0305200000000001
  1.3723799999999999 20.2066000000000017  4.1058800000000000
  2.7391999999999999 18.7571000000000012  5.4562700000000000
  5.4471100000000003 21.6340000000000003  5.4558700000000000
  4.0810899999999997 20.2926000000000002  6.6924299999999999
  6.8633300000000004 20.3474000000000004  4.1800300000000004
  8.0591100000000004 18.9649000000000001  5.7962400000000001
  9.6171199999999999 20.2748999999999988  6.9806999999999997
 12.2697000000000003 20.4732999999999983  4.0450299999999997
 13.3878000000000004 18.8473000000000006  5.5173100000000002
 16.4370000000000012 21.6110000000000007  5.4780699999999998
 14.9136000000000006 20.3532000000000011  6.8067399999999996
 17.7176000000000009 20.3782999999999994  4.1052200000000001
 19.0355999999999987 18.8765999999999998  5.3947099999999999
 20.4470999999999989 20.2345000000000006  6.8482200000000004
  2.7984300000000002 21.4974999999999987  8.0772499999999994
  3.8393700000000002  1.2417199999999999  9.5513999999999992
  5.3454800000000002  2.4746100000000002  8.2756799999999995
  9.2759199999999993  1.4247099999999999  9.5933600000000006
  8.0332399999999993  0.0691350000000000  8.2912300000000005
 10.8169000000000004  2.6285400000000001  8.2281800000000000
 13.5592000000000006  0.0177256000000000  8.2531199999999991
 14.9559999999999995  1.3728400000000001  9.5333799999999993
 16.4637999999999991  2.7272799999999999  8.2531700000000008
 18.9265000000000008  2.6111900000000001 11.0214999999999996
  0.0264320000000000  2.6525300000000001  8.2133800000000008
 20.3226000000000013  1.2907400000000000  9.6414799999999996
 19.0638000000000005 21.6908999999999992  8.1793800000000001
  2.7196300000000000  5.3814799999999998  8.3447099999999992
  1.2687800000000000  4.0786199999999999  9.5936100000000000
  6.4616100000000003  3.8798300000000001  9.9320000000000004
  4.0924800000000001  6.8052799999999998  9.6262000000000008
  6.6268200000000004  6.8525700000000001  9.7865000000000002
  7.9108599999999996  5.3027899999999999  8.4563699999999997
  9.2649799999999995  6.7023400000000004  9.8365600000000004
 12.0187000000000008  4.0121300000000000  9.6709399999999999
 13.5533000000000001  5.2351299999999998  8.2793100000000006
 17.3038999999999987  3.8708399999999998 10.1029000000000000
 14.5881000000000007  6.3156699999999999  9.9783700000000000
 19.4875000000000007  5.7909899999999999  7.6011899999999999
 20.3186999999999998  6.5849500000000001 10.4372000000000007
 18.1470999999999982  5.7819799999999999  9.5200200000000006
  1.3777999999999999  9.5016200000000008  9.9748400000000004
  2.4189500000000002 10.7425999999999995  8.3565000000000005
  5.1918699999999998  8.3582500000000000  8.2374200000000002
  6.6463500000000000  9.5340799999999994  9.7816600000000005
 10.7027000000000001  8.0706199999999999  8.3270300000000006
 12.2139000000000006  9.2066499999999998  9.6937300000000004
 13.4696999999999996 10.6320999999999994  8.3797400000000000
 16.6245000000000012  8.5758600000000005  7.4017499999999998
 17.6233000000000004  9.2844099999999994 10.9145000000000003
 16.5610999999999997  7.5483000000000002  9.4615899999999993
 18.3775000000000013 10.2241999999999997  7.3694499999999996
 21.1077000000000012  7.4404800000000000  7.4985200000000001
 21.0472999999999999  8.5489200000000007  9.4690399999999997
 19.3259000000000007 10.0472000000000001  9.3579799999999995
 21.4674000000000014 13.4735999999999994  8.2842300000000009
  4.0434700000000001 11.9616000000000007  9.8004899999999999
  5.2028200000000000 13.4501000000000008  8.0900400000000001
  8.0350599999999996 10.8034999999999997  8.3638399999999997
  9.5204000000000004 12.1121999999999996  9.6760500000000000
  8.1224299999999996 13.5106999999999999 10.9695000000000000
 10.7978000000000005 13.6541999999999994  8.3130199999999999
 14.8246000000000002 11.9057999999999993  9.7435399999999994
 16.2387000000000015 13.3407999999999998  8.2927499999999998
 20.2971000000000004 12.1990999999999996  9.8449200000000001
  2.5655899999999998 16.0120000000000005  8.1724399999999999
  1.2238199999999999 14.6400000000000006  9.6650399999999994
  6.6028900000000004 14.7462000000000000  9.5466899999999999
  3.7723300000000002 17.3611000000000004  9.4976699999999994
  5.2184400000000002 16.0990000000000002 10.7736999999999998
  9.5061499999999999 17.5004999999999988  9.4408700000000003
  8.2193000000000005 16.2545000000000002  8.2821899999999999
 13.5677000000000003 16.1248000000000005  8.3447099999999992
 12.2571999999999992 14.8558000000000003  9.6770999999999994
 10.8756000000000004 16.4051000000000009 10.8026000000000000
 17.5673999999999992 14.7047000000000008  9.6566899999999993
 14.9054000000000002 17.6107000000000014  9.6185399999999994
 20.1279000000000003 17.5311999999999983  9.6802499999999991
 18.8125000000000000 16.0792000000000002  8.4183199999999996
  1.3237500000000000 20.1777000000000015  9.5400700000000001
  2.6323599999999998 18.7292999999999985 11.0017999999999994
 21.5958000000000006 18.9234000000000009  8.2994400000000006
  6.7718499999999997 20.3176999999999985  9.5083300000000008
  5.3037400000000003 18.8996999999999993  8.3130400000000009
  7.9864899999999999 18.9076999999999984 10.9156999999999993
 10.9663000000000004 18.8728000000000016  8.3064300000000006
 12.2349999999999994 20.3505000000000003  9.6310800000000008
 16.1895999999999987 19.0198000000000000  8.2250099999999993
 17.6237999999999992 20.2148000000000003  9.5124999999999993
  1.2459000000000000  1.2044400000000000 12.3658999999999999
  0.1213230000000000  2.4255700000000000 13.8437000000000001
  2.5763199999999999  2.6282000000000001 11.0317000000000007
  2.5415500000000000 21.4939999999999998 13.9331999999999994
 21.6506000000000007 21.6134999999999984 10.9301999999999992
  5.3995800000000003  2.5676600000000001 13.8932000000000002
  6.5372800000000000  1.2751100000000000 12.6644000000000005
  5.1586999999999996 21.6441000000000017 11.1074000000000002
  7.9724800000000000 21.6001000000000012 13.9047000000000001
 10.7658000000000005  2.6510899999999999 13.9453999999999994
  8.0065000000000008  2.5934200000000001 11.2103999999999999
 10.7139000000000006 21.6968999999999994 10.8402999999999992
 13.3917000000000002  2.5733700000000002 11.0905000000000005
 11.8844999999999992  1.2532399999999999 12.4115000000000002
 16.1334000000000017  2.5887699999999998 13.9748000000000001
 17.5699000000000005  1.4852099999999999 12.4387000000000008
  2.5953400000000002  5.2914099999999999 14.0699000000000005
  1.3932500000000001  6.7368100000000002 12.6572999999999993
  0.1396210000000000  5.1311099999999996 11.4525000000000006
  3.8887700000000001  3.8220600000000000 12.4198000000000004
  5.3599699999999997  5.2206500000000000 11.2455999999999996
  6.7622200000000001  6.8680500000000002 12.6860999999999997
  9.2496799999999997  3.9867300000000001 12.5271000000000008
  8.1574399999999994  5.4448200000000000 14.1241000000000003
 10.7988000000000000  5.3641600000000000 11.1715999999999998
 13.2776999999999994  5.4028000000000000 14.3106000000000009
 12.2407000000000004  6.6254299999999997 12.6494000000000000
 14.5097000000000005  3.7359700000000000 12.8602000000000007
 15.8674999999999997  4.9433699999999998 11.4132999999999996
 17.3575000000000017  6.3571299999999997 12.7288999999999994
 18.8375999999999983  5.1061800000000002 14.0597999999999992
 20.2622000000000000  3.8513700000000002 12.6872000000000007
  2.8090700000000002  8.0335199999999993 11.1842000000000006
 21.7194000000000003  7.7231399999999999 14.2294999999999998
  5.4720599999999999 10.8245000000000005 11.3402999999999992
  5.3284200000000004  7.9568800000000000 14.1252999999999993
  4.1294800000000000  9.4702199999999994 12.6028000000000002
  9.4937100000000001  9.5038999999999998 12.3264999999999993
  8.0940300000000001  8.1026199999999999 11.2779000000000007
 10.9548000000000005  8.1800400000000000 13.6755999999999993
 13.4786000000000001  7.9805599999999997 11.3336000000000006
 10.9726999999999997 10.7697000000000003 11.0831999999999997
 13.5013000000000005 10.8910999999999998 14.0465000000000000
 14.8228000000000009  9.3655700000000000 12.7413000000000007
 16.2467000000000006  7.9369399999999999 13.9141999999999992
 19.0710000000000015  7.7700800000000001 12.2096000000000000
 20.6696999999999989  9.4465199999999996 12.9276000000000000
  2.6906800000000000 10.8399000000000001 13.8351000000000006
  2.6633800000000001 13.3226999999999993 11.0597999999999992
  0.1170230000000000 10.7524999999999995 11.3872000000000000
  1.3861200000000000 12.2457999999999991 12.6105999999999998
 21.7104999999999997 13.5983000000000001 13.9045000000000005
  6.8633199999999999 12.3070000000000004 12.5030000000000001
  5.4505400000000002 13.5091000000000001 13.8291000000000004
  8.2009299999999996 10.8841999999999999 13.8074999999999992
 13.5835000000000008 13.4459000000000000 11.1217000000000006
 10.8826999999999998 13.7567000000000004 13.7652999999999999
 12.1402999999999999 12.0563000000000002 12.6047999999999991
 16.2505999999999986 10.8268000000000004 11.4854000000000003
 17.7042999999999999 12.2020000000000000 12.8240999999999996
 16.2241000000000000 13.5805000000000007 14.0824999999999996
 19.0578000000000003 10.7241000000000000 14.1622000000000003
 18.9456999999999987 13.4129000000000005 11.2552000000000003
  1.3087599999999999 17.5016999999999996 12.5218000000000007
  2.7561599999999999 16.2422000000000004 13.8823000000000008
  6.3911600000000002 17.9875000000000007 14.7943999999999996
  3.9598000000000000 14.7378000000000000 12.4004999999999992
  6.6460999999999997 17.3743000000000016 12.0974000000000004
  4.2917199999999998 18.0614999999999988 13.0288000000000004
  9.4975799999999992 15.0188000000000006 12.2725000000000009
  8.1062799999999999 16.1515999999999984 13.7091999999999992
 13.5747999999999998 16.3497999999999983 13.7795000000000005
 12.1602999999999994 17.6533000000000015 12.3363999999999994
 16.1843000000000004 16.2598999999999982 11.1195000000000004
 14.8346000000000000 14.8351000000000006 12.5765999999999991
 17.6413000000000011 17.6006999999999998 12.5312999999999999
 21.5551999999999992 16.1330999999999989 11.0281000000000002
 20.1871000000000009 14.8648000000000007 12.5627999999999993
 18.9409999999999989 16.2748999999999988 13.8634000000000004
  0.2036720000000000 18.9176000000000002 13.7787000000000006
  3.7105299999999999 20.2673999999999985 12.4128000000000007
  6.2655900000000004 19.5974000000000004 13.1409000000000002
  9.4508600000000005 20.4248000000000012 12.2408000000000001
 13.4634000000000000  0.0786448000000000 13.7436000000000007
 10.9178999999999995 19.0242000000000004 13.6646999999999998
 13.6305999999999994 18.9447000000000010 10.9974000000000007
 16.2470999999999997 21.7073999999999998 10.9067000000000007
 14.7984000000000009 20.4328000000000003 12.3405000000000005
 16.2657999999999987 19.2075999999999993 13.7367000000000008
 19.0143999999999984  0.0140244000000000 13.7872000000000003
 18.8998999999999988 19.0249999999999986 11.2731999999999992
 20.4270999999999994 20.2802000000000007 12.4497999999999998
  2.6445799999999999  2.6420300000000001 16.8585999999999991
  1.2244800000000000  1.3925600000000000 18.2823999999999991
  4.4087600000000000 19.9593999999999987 14.7180000000000000
  3.9387599999999998  1.1934700000000000 15.3099000000000007
  5.3106700000000000  0.1269740000000000 16.9326000000000008
  9.2118500000000001  1.4655000000000000 15.2651000000000003
  8.0444099999999992  2.8142499999999999 16.6900000000000013
 10.6813000000000002 21.7070000000000007 16.5296999999999983
 13.3094999999999999  2.6572600000000000 16.6701000000000015
 12.0106999999999999  1.3856100000000000 18.0558000000000014
 14.8242999999999991  1.2369699999999999 15.3152000000000008
 17.3923999999999985  1.2746000000000000 18.1651999999999987
  0.0645673000000000 21.6847999999999992 16.8137000000000008
 20.2286999999999999  1.2920400000000001 15.3571000000000009
 18.7815000000000012  2.4860099999999998 16.8080999999999996
  1.2030500000000000  6.6852499999999999 18.1358999999999995
  1.2021900000000001  3.9779800000000001 15.3145000000000007
  6.7007399999999997  6.7607900000000001 18.0969000000000015
  5.3109299999999999  5.4196799999999996 16.7831000000000010
  6.7601000000000004  4.0047100000000002 15.3566000000000003
  3.9610900000000000  6.5253399999999999 15.4335000000000004
  4.1301100000000002  3.9964599999999999 18.1895999999999987
  9.6099999999999994  6.9077500000000001 15.1961999999999993
 10.8864000000000001  5.3582000000000001 16.9225999999999992
 12.0275999999999996  4.0627800000000001 15.5040999999999993
 12.0762000000000000  6.8650799999999998 18.1295999999999999
 14.8269000000000002  6.8694499999999996 15.4016999999999999
 16.0592000000000006  5.3533400000000002 16.7943999999999996
 17.2979999999999983  3.9243199999999998 15.4468999999999994
 17.4145000000000003  6.8081800000000001 18.0747000000000000
 14.6280999999999999  3.9847399999999999 18.1134999999999984
 20.0249999999999986  6.5501699999999996 15.5814000000000004
 20.2102000000000004  3.9871500000000002 18.0256000000000007
 21.4723000000000006  5.3018000000000001 16.7972000000000001
  2.6385600000000000  8.0292200000000005 16.6125000000000007
  1.2593200000000000  9.4218899999999994 15.3788999999999998
  6.7824900000000001  9.5142100000000003 15.2644000000000002
  3.8007499999999999  9.4410500000000006 17.9706000000000010
  8.1478199999999994  8.2780500000000004 16.6281999999999996
  9.3608100000000007  9.7085500000000007 18.1401000000000003
 12.1029999999999998  9.6010399999999994 15.3015000000000008
 13.4693000000000005  8.1315899999999992 16.7878000000000007
 17.5111999999999988  9.5195000000000007 15.3140999999999998
 14.7075999999999993  9.5577000000000005 18.1937999999999995
 16.1905000000000001 10.9420999999999999 16.7506999999999984
 18.7979999999999983  8.3015799999999995 16.7692000000000014
 20.2334999999999994  9.5366599999999995 18.1875000000000000
  0.6447630000000000 12.7077000000000009 17.0792999999999999
  2.6109100000000001 13.5504999999999995 16.5904999999999987
  5.4925199999999998 10.7660999999999998 16.8180000000000014
  4.0426500000000001 12.2181999999999995 15.3742000000000001
  6.6492800000000001 12.1839999999999993 18.1444000000000010
  8.0042200000000001 13.6155000000000008 16.4821999999999989
  9.5013299999999994 12.3003999999999998 15.0288000000000004
 10.6946999999999992 10.9536999999999995 16.5825999999999993
 13.5618999999999996 13.6201000000000008 16.6113999999999997
 12.0164000000000009 12.2056000000000004 18.0231999999999992
 14.8157999999999994 12.2515999999999998 15.4086999999999996
 17.5869999999999997 12.3792000000000009 18.2504999999999988
 21.5207000000000015 10.7060999999999993 16.6855000000000011
 18.9987999999999992 13.8004999999999995 16.7165999999999997
 20.3789000000000016 12.2149999999999999 15.4761000000000006
  1.2053499999999999 15.2035000000000000 15.3423999999999996
  1.2639400000000001 17.7658999999999985 18.2231999999999985
  0.0558504000000000 16.4905000000000008 16.5772000000000013
  3.9681000000000002 17.7821999999999996 15.4123999999999999
  5.3876999999999997 16.1262000000000008 16.7878000000000007
  6.7083399999999997 14.8863000000000003 15.1890000000000001
  3.9166099999999999 14.8486999999999991 18.1032000000000011
  6.5694900000000001 17.6873000000000005 18.2106999999999992
  9.5512099999999993 17.6158000000000001 15.2034000000000002
  9.3725000000000005 14.9949999999999992 17.9411999999999985
 10.8660999999999994 16.3060000000000009 16.6537000000000006
 12.1411999999999995 14.8206000000000007 15.2761999999999993
 12.0023999999999997 17.7537999999999982 18.1248000000000005
 17.6236999999999995 14.9367000000000001 15.3636999999999997
 16.2166999999999994 16.3288000000000011 16.6887000000000008
 14.9443999999999999 14.9436999999999998 17.9841000000000015
 14.8896999999999995 17.8871000000000002 15.1244999999999994
 17.5262999999999991 17.7573000000000008 18.1053999999999995
 20.3552999999999997 17.7348999999999997 15.0248000000000008
 20.4525000000000006 14.9822000000000006 18.0875999999999983
  2.7779900000000000 19.1040999999999990 16.9652999999999992
  1.2201599999999999 20.2697000000000003 15.4573000000000000
  6.6557899999999997 20.4094000000000015 15.6011000000000006
  4.0040199999999997 20.4920000000000009 18.3547000000000011
  7.9855099999999997 18.7880000000000003 16.7978999999999985
  9.4289100000000001 20.3628999999999998 18.0533999999999999
 13.5433000000000003 19.1763000000000012 16.6814999999999998
 12.0091999999999999 20.3900000000000006 15.1475000000000009
 14.8706999999999994 20.5643999999999991 17.9710000000000001
 17.7317999999999998 20.4603000000000002 15.2118000000000002
 16.2717999999999989 21.5747000000000000 16.6265000000000001
 19.0264999999999986 18.8615999999999993 16.5498000000000012
 20.2616000000000014 20.4115000000000002 18.0265999999999984
 21.5021999999999984  2.7349800000000002 19.5069000000000017
  2.6210900000000001  0.1381720000000000 19.7576000000000001
  3.8948200000000002  1.6931600000000000 20.9685999999999986
  5.5704399999999996  3.1220500000000002 19.8040999999999983
  9.0486299999999993  1.6280399999999999 21.2350999999999992
  8.1775000000000002 21.6697999999999986 19.4981000000000009
 10.6233000000000004  2.7168600000000001 19.5018999999999991
 13.3081999999999994  0.0789757000000000 19.4555000000000007
 16.0972000000000008  2.6142099999999999 19.4764000000000017
 14.8826000000000001  1.1378600000000001 20.8221999999999987
 20.4775999999999989  1.2787299999999999 20.9173000000000009
 18.9447000000000010 21.6084999999999994 19.4605999999999995
  1.2779300000000000  3.9838900000000002 20.8018000000000001
  2.6466300000000000  5.4977700000000000 19.5328000000000017
  5.3508100000000001  5.1232400000000000 21.9109000000000016
  4.1560300000000003  6.7804099999999998 20.8286000000000016
  9.2087699999999995  4.1865600000000001 18.1581000000000010
  7.6814999999999998  5.0997700000000004 19.6770999999999994
  9.1467100000000006  6.6375700000000002 20.7622000000000000
 12.0263000000000009  4.1454399999999998 20.7757000000000005
 13.3948000000000000  5.7051299999999996 19.5927000000000007
 17.4268000000000001  3.9480100000000000 20.8640000000000008
 14.9007000000000005  6.6366199999999997 20.7574000000000005
 18.8778000000000006  5.4496799999999999 19.4247000000000014
 20.1217000000000006  6.8985599999999998 20.9021000000000008
  1.1699600000000001  9.2242700000000006 20.9711999999999996
 21.5347000000000008  8.0541699999999992 19.4838999999999984
  2.7473500000000000 10.3741000000000003 19.7049999999999983
  6.3932399999999996  9.4847099999999998 20.8292000000000002
  5.2809799999999996  8.1840299999999999 19.3561000000000014
 10.4436999999999998  8.1295000000000002 19.4043999999999990
 11.9863000000000000  9.3057599999999994 20.7999000000000009
 16.3114999999999988  8.2868700000000004 19.5640000000000001
 17.6380000000000017  9.6908899999999996 20.8358999999999988
 19.1652999999999984 11.0771999999999995 19.6036999999999999
  0.7426410000000000 11.3836999999999993 18.9690000000000012
  5.2506899999999996 13.4530999999999992 19.4045999999999985
  4.0673899999999996 12.1887000000000008 20.9099000000000004
  8.0032700000000006 10.9283999999999999 19.6589999999999989
  9.3462899999999998 12.4570000000000007 20.8501000000000012
 10.7079000000000004 13.6937999999999995 19.4290999999999983
 13.3374000000000006 10.8470999999999993 19.5206000000000017
 13.3695000000000004 13.6890999999999998 22.2024000000000008
 16.1987999999999985 13.7223000000000006 19.7123999999999988
 14.8918999999999997 12.1582000000000008 20.9121999999999986
 20.7275999999999989 12.2949000000000002 20.6114999999999995
 20.4777999999999984 13.7573000000000008 22.7049999999999983
  0.0603655000000000 13.5958000000000006 19.1871000000000009
  1.3588100000000001 14.9082000000000008 20.7927000000000000
  2.6528700000000001 16.2789999999999999 19.4517999999999986
  6.4775999999999998 15.0322999999999993 20.7750999999999983
  3.8927900000000002 17.5065999999999988 21.0813999999999986
  7.9046099999999999 16.2083000000000013 19.3521000000000001
  9.1658799999999996 17.5505999999999993 20.8932000000000002
 12.0838999999999999 14.9710000000000001 20.7731999999999992
 13.4984000000000002 16.2478000000000016 19.3843999999999994
 17.6111000000000004 15.0276999999999994 20.8486000000000011
 14.8604000000000003 17.5585999999999984 20.7387000000000015
 19.0043000000000006 16.3070999999999984 19.4282000000000004
 20.1377999999999986 17.7935000000000016 21.0396999999999998
  1.2181700000000000 20.2352999999999987 20.9573999999999998
 21.4813000000000009 18.9791999999999987 19.5614999999999988
  5.1147499999999999 18.8302000000000014 19.8058000000000014
  6.6683399999999997 20.4878000000000000 20.9098000000000006
 10.5752000000000006 18.9628000000000014 19.4273999999999987
 11.9588999999999999 20.4597000000000016 20.6382000000000012
 16.0735999999999990 19.0829999999999984 19.3436999999999983
 17.5637000000000008 20.2027000000000001 20.8103000000000016
  1.1081799999999999  1.4313600000000000 23.8228000000000009
  2.5432800000000002  2.7021199999999999 22.4074999999999989
  2.6357800000000000  0.0597695000000000 24.9308000000000014
 21.6693999999999996 21.6439999999999984 22.3417999999999992
  5.5902500000000002  2.4162300000000001 24.6912999999999982
  7.1532700000000000  1.4670399999999999 22.9868999999999986
  5.4126099999999999  0.0798975000000000 22.1207999999999991
  6.7606799999999998  1.5485800000000001 18.2258999999999993
 10.7501999999999995  2.6013799999999998 24.6994000000000007
 13.5035000000000007  2.7416600000000000 22.0591000000000008
 12.1682000000000006  1.3746300000000000 23.3558999999999983
 17.5396000000000001  1.1353300000000000 25.7473999999999990
 18.0534999999999997  0.6802080000000000 23.4453999999999994
 21.2957000000000001  2.6697199999999999 25.1567000000000007
 18.9011999999999993  2.5363300000000000 22.1344999999999992
  2.8855700000000000  7.2585699999999997 25.0910000000000011
  1.0851100000000000  6.9741999999999997 23.6284999999999989
 21.5985000000000014  5.3791099999999998 22.2100000000000009
  3.1440800000000002  4.8100800000000001 25.5195000000000007
  4.2372699999999996  3.9874999999999998 23.5361000000000011
  6.7148599999999998  6.5752899999999999 23.2207000000000008
  9.4539299999999997  3.8410000000000002 23.2759999999999998
  8.0579000000000001  5.1657999999999999 24.6911999999999985
 10.6097999999999999  5.4192999999999998 22.0486000000000004
 13.3793000000000006  5.3518200000000000 24.9279000000000011
 12.0770000000000000  6.8238399999999997 23.4893999999999998
 16.0938000000000017  5.1559499999999998 22.2704999999999984
 14.7481000000000009  3.7919800000000001 23.7162000000000006
 17.4747999999999983  6.6433600000000004 23.3697000000000017
 20.2503999999999991  3.9711099999999999 23.4989999999999988
 19.3630999999999993  5.8786500000000004 24.5928000000000004
  2.7779699999999998  8.1199300000000001 22.4296000000000006
 21.6450999999999993 10.8302999999999994 22.4057999999999993
  2.7674200000000000 10.9603000000000002 25.1954999999999991
  4.1809700000000003  9.7309699999999992 23.8359999999999985
  5.3034200000000000  7.8558399999999997 24.7104999999999997
  8.1009499999999992  8.2128700000000006 22.1383000000000010
  9.4588500000000000  9.6163100000000004 23.5763999999999996
 10.7903000000000002  8.1265800000000006 24.9518999999999984
 13.4727999999999994  8.0720200000000002 22.1912999999999982
 16.2957000000000001  8.1480499999999996 24.8927000000000014
 14.8612000000000002  9.4170499999999997 23.4697999999999993
 18.8364000000000011  8.2415299999999991 22.2682000000000002
 21.1514999999999986  7.9776100000000003 24.9816000000000003
 20.0478999999999985  9.6014800000000005 23.6293000000000006
  2.6685900000000000 13.4700000000000006 22.3245000000000005
  1.3977599999999999 12.2042999999999999 23.8123000000000005
 21.4729999999999990 13.6354000000000006 24.9337000000000018
  5.4674899999999997 10.9993999999999996 22.3518000000000008
  6.8351300000000004 12.2673000000000005 23.7110999999999983
  5.3960299999999997 13.4091000000000005 25.0166000000000004
  7.9899399999999998 10.8849999999999998 25.0398999999999994
 10.8435000000000006 10.9652999999999992 22.0961999999999996
  7.9728700000000003 13.6602999999999994 22.1079000000000008
 10.7756000000000007 13.6259999999999994 24.8905999999999992
 13.4998000000000005 10.7546999999999997 24.6154000000000011
 12.0869000000000000 12.2896999999999998 23.5092999999999996
 14.9108000000000001 15.0310000000000006 23.6428000000000011
 16.1814999999999998 10.8777000000000008 22.1355000000000004
 17.6997000000000000 13.0029000000000003 26.9853999999999985
 17.1238999999999990 12.2986000000000004 23.8076000000000008
 18.6732000000000014 10.7913999999999994 24.9740000000000002
 18.2986000000000004 14.1721000000000004 23.0122000000000000
  2.4691100000000001 15.8765999999999998 25.1073999999999984
  1.0591999999999999 17.2459999999999987 23.6287999999999982
 21.4101999999999997 16.0570999999999984 22.1893999999999991
  5.3510900000000001 16.1977000000000011 22.4558999999999997
  4.0766099999999996 14.8617000000000008 23.7102000000000004
  6.7091799999999999 17.7071000000000005 23.6660000000000004
  9.2709200000000003 14.8430999999999997 23.5401999999999987
  8.1212999999999997 16.1881999999999984 25.0315000000000012
 10.6565999999999992 16.2670999999999992 22.3179000000000016
 13.2213999999999992 16.1603999999999992 24.9282000000000004
 12.1022999999999996 17.6287999999999982 23.4858000000000011
 16.1518000000000015 16.2779999999999987 22.1311000000000000
 16.3475999999999999 14.4047999999999998 25.6457000000000015
 17.2451000000000008 17.6535000000000011 23.6722000000000001
 20.5272000000000006 15.6448000000000000 25.9411999999999985
 18.2212999999999994 15.8871000000000002 24.8704999999999998
  2.5996600000000001 18.9031999999999982 22.5198999999999998
  5.3550599999999999 18.9814000000000007 25.0347000000000008
  3.9658400000000000 20.4739000000000004 23.6422999999999988
  8.0697299999999998  0.1684320000000000 24.7121999999999993
 10.7347999999999999  0.0724706000000000 21.9743999999999993
  8.0196600000000000 19.0263999999999989 22.2581999999999987
  9.4349500000000006 20.3714000000000013 23.4753000000000007
 13.3795999999999999 21.6966999999999999 24.8289000000000009
 10.7423999999999999 19.0192000000000014 24.8943000000000012
 13.4598999999999993 18.8375999999999983 22.0005999999999986
 16.1276000000000010 21.4573000000000000 22.2571000000000012
 14.6850000000000005 20.1080000000000005 23.6431000000000004
 15.9824000000000002 19.0296999999999983 25.1053999999999995
 18.7511000000000010 18.9045999999999985 22.4251000000000005
 19.7437000000000005 20.5964999999999989 23.6192999999999991
  0.8916460000000000  0.4323750000000000 28.2437000000000005
  2.3883700000000001  2.1315599999999999 27.7075999999999993
  3.6319200000000000  2.7142800000000000 29.7559000000000005
  6.0676500000000004  0.6779440000000000 31.6794000000000011
  4.1507600000000000  1.2224900000000001 26.3271000000000015
  3.9973900000000002 20.3825000000000003 29.0960000000000001
  9.1489200000000004  1.6170100000000001 26.0431999999999988
  5.5837599999999998  0.1598810000000000 27.9420999999999999
 10.4914000000000005  0.3616620000000000 27.5528000000000013
 13.1455000000000002  2.6402100000000002 27.7281000000000013
 15.9153000000000002  2.8870000000000000 25.4616000000000007
 14.5825999999999993  1.3677699999999999 26.5213000000000001
 19.1244000000000014  0.0662491000000000 29.2829000000000015
 19.6953999999999994  2.2810899999999998 26.7494000000000014
  1.3662000000000001  3.7467800000000002 26.4179999999999993
 21.6905000000000001  5.1961500000000003 27.7744000000000000
  7.2271400000000003  2.8986800000000001 28.3560000000000016
  4.3046199999999999  5.4279799999999998 27.6994000000000007
  5.3892199999999999  7.4225099999999999 27.0441000000000003
  7.3780400000000004  3.1943100000000002 26.0211000000000006
  9.3165499999999994  6.5234399999999999 26.0273000000000003
 10.6559000000000008  5.2950200000000001 27.3832999999999984
 12.0161999999999995  3.9890699999999999 26.2149999999999999
 11.9473000000000003  6.6562700000000001 28.7287999999999997
 16.0439000000000007  4.5890000000000004 27.1118999999999986
 14.8764000000000003  6.5629000000000000 26.2206000000000010
 14.6959999999999997  3.8937800000000000 28.9608999999999988
 18.2207000000000008  4.1520099999999998 27.8046000000000006
 19.5212000000000003  5.9241200000000003 26.9696999999999996
  2.7376800000000001  6.5922700000000001 29.0628999999999991
  1.8574100000000000  9.1666200000000000 26.3308000000000000
  3.9612900000000000  9.1842000000000006 27.5145000000000017
  6.4298000000000002 10.3855000000000004 26.7727000000000004
  7.9745400000000002  9.3941599999999994 28.2958999999999996
  7.7117199999999997  7.2103900000000003 27.8199000000000005
 10.5094999999999992  7.7846399999999996 30.2411999999999992
 13.4682999999999993  7.9270300000000002 27.4805999999999990
 12.3184000000000005  9.5375300000000003 26.2757000000000005
 17.6933000000000007  9.2433999999999994 26.5048999999999992
 16.9760999999999989 11.2652999999999999 29.8265999999999991
 14.7459000000000007  9.3193300000000008 28.7841999999999985
 21.4311000000000007  9.0432699999999997 27.2597999999999985
 19.3637000000000015  8.1187100000000001 27.5838000000000001
  1.3748300000000000 12.0561000000000007 29.2594999999999992
  3.7043800000000000 12.7103000000000002 26.4820999999999991
  1.5900600000000000 14.1995000000000005 26.4018000000000015
  6.5092100000000004 11.8617000000000008 28.7099000000000011
  9.5234199999999998 12.2829999999999995 26.4335999999999984
  8.0051500000000004 13.5693000000000001 27.8568999999999996
 11.3661999999999992 11.2121999999999993 27.8093000000000004
 16.4068000000000005 10.8317999999999994 27.6727999999999987
 12.5641999999999996 13.3925000000000001 27.8004999999999995
 20.6713999999999984 13.0630000000000006 31.4430000000000014
 15.4178999999999995 11.9146999999999998 25.5972000000000008
 19.6109000000000009 11.8867999999999991 29.7121999999999993
 20.0034999999999989 12.3923000000000005 26.2941000000000003
  0.7496860000000000 17.7575000000000003 28.0527000000000015
  1.4922800000000001 15.4451999999999998 28.3003999999999998
  6.7977499999999997 14.9103999999999992 26.3113999999999990
  5.3044099999999998 16.3948999999999998 27.2881000000000000
  3.8094100000000002 17.5799999999999983 26.1505000000000010
  9.1732200000000006 17.8201000000000001 26.2394999999999996
 10.3353000000000002 16.5054000000000016 27.7178000000000004
 11.7875999999999994 15.0286000000000008 26.3824000000000005
 14.5401000000000007 17.6558999999999990 26.5042000000000009
 15.3591999999999995 16.0954000000000015 28.1388999999999996
 18.5635000000000012 13.8314000000000004 29.0473999999999997
 20.8783999999999992 17.9768000000000008 29.9294000000000011
 18.9217000000000013 17.8278999999999996 28.4084000000000003
 21.6142000000000003 17.7510000000000012 25.8052999999999990
  1.0905899999999999 20.7598999999999982 26.4460000000000015
  2.6000000000000001 19.2907000000000011 27.4444000000000017
  1.8262799999999999 20.9175000000000004 30.0672999999999995
  6.5516500000000004 20.5427999999999997 26.2466000000000008
  8.0131899999999998 19.3328999999999986 27.6000000000000014
 13.2561999999999998 19.1511999999999993 27.7231999999999985
 11.9806000000000008 20.4746999999999986 26.3154000000000003
 15.7715999999999994 21.5210000000000008 27.9043999999999990
 17.1309000000000005 20.5582999999999991 26.3939999999999984
 20.5446999999999989 19.9470999999999989 25.8426000000000009
 18.9500999999999991 20.0619000000000014 27.6494999999999997
  3.1832099999999999  0.0642013000000000 32.8843999999999994
  6.9061199999999996 17.2746999999999993 31.7545000000000002
  8.6712600000000002  2.0689099999999998 31.5765999999999991
 10.5678999999999998  3.0712100000000002 30.3537999999999997
 12.9715000000000007 21.6646999999999998 30.3189999999999991
 11.7554999999999996  1.5615900000000000 29.1811000000000007
 17.3661999999999992  1.4275400000000000 28.4988999999999990
 14.5371000000000006  1.2463100000000000 31.6152000000000015
 16.0587000000000018  2.4308800000000002 30.3318000000000012
 21.6489000000000011  3.6241400000000001 31.9485999999999990
 20.6481999999999992  1.7270500000000000 28.7693000000000012
  2.8608300000000000  6.6279300000000001 33.3055999999999983
  1.8819699999999999  5.7222400000000002 31.1916000000000011
  5.0019999999999998  6.7430500000000002 32.0420000000000016
  5.3536500000000000  4.0723300000000000 29.3310999999999993
  6.4180099999999998  5.1466799999999999 30.9730999999999987
  7.4159199999999998  0.8023260000000000 29.6895999999999987
  9.1373499999999996  4.2089699999999999 28.8782999999999994
 11.9703999999999997  4.5121300000000000 31.6635999999999989
 13.2896000000000001  5.2456300000000002 30.0155999999999992
 17.4602000000000004  3.7282000000000002 31.6706000000000003
 14.9128000000000007  6.3939800000000000 31.3460999999999999
 21.1500999999999983  3.8349700000000002 29.5343000000000018
 18.9497999999999998  4.4797599999999997 30.0059000000000005
 19.2414999999999985  6.6097299999999999 30.8850000000000016
  0.5265100000000000  7.4114199999999997 28.5957000000000008
 21.2724000000000011 11.2714999999999996 27.9958999999999989
  4.1705100000000002  8.2097899999999999 30.3028000000000013
  6.5764699999999996  8.4632699999999996 30.0935999999999986
  8.1367300000000000  6.3825599999999998 29.9484999999999992
 12.1659000000000006  9.2644099999999998 31.9777999999999984
 17.0566999999999993 14.9829000000000008 30.7047999999999988
 12.9550999999999998 10.5848999999999993 30.1863999999999990
 15.8983000000000008  8.3141700000000007 30.5603000000000016
 15.8541000000000007 10.2248000000000001 31.8108000000000004
 18.3243000000000009  8.2363099999999996 29.5938000000000017
 21.6795000000000009  7.0546600000000002 30.8616999999999990
 19.1265999999999998 10.0160000000000000 30.9680000000000000
  2.7462800000000001 11.7804000000000002 32.8457999999999970
  0.9371450000000000 14.0456000000000003 30.4721000000000011
  2.0691799999999998 14.5387000000000004 32.2456000000000031
  6.5111600000000003 10.5937999999999999 30.7225000000000001
  3.8152900000000001 11.3722999999999992 28.7488999999999990
  9.8613499999999998 10.0497999999999994 29.3976000000000006
  8.9698899999999995 10.5914000000000001 31.5606000000000009
 10.8297000000000008 12.6007999999999996 33.8605999999999980
 15.6297999999999995 13.2383000000000006 29.7640999999999991
 20.3648999999999987 15.7004999999999999 30.7894000000000005
 16.5284000000000013 14.0038999999999998 32.8560999999999979
 21.2921000000000014  9.2019000000000002 31.7666000000000004
 20.0441000000000003 15.7286999999999999 28.2325000000000017
  4.0559799999999999 16.0903999999999989 32.5670000000000002
  3.6423399999999999 17.2552999999999983 30.5004999999999988
  3.9355199999999999 15.4876000000000005 28.9638999999999989
  5.1889399999999997 13.7795000000000005 30.0193000000000012
  6.8984800000000002 17.4807999999999986 28.6702000000000012
  8.5542400000000001 15.4466999999999999 29.1758999999999986
  7.0054200000000000 14.9053000000000004 30.9858000000000011
 12.1102000000000007 14.3694000000000006 29.9139000000000017
 10.1494000000000000 14.7763000000000009 30.7424999999999997
 13.5012000000000008 16.1282999999999994 29.6097999999999999
 11.9200999999999997 17.8275000000000006 29.0401999999999987
 18.3963999999999999 16.8897000000000013 31.8263999999999996
 14.3469999999999995 16.7974999999999994 31.6214000000000013
 15.0338999999999992 13.9711999999999996 27.5701999999999998
 17.1298999999999992 17.2138999999999989 29.6863999999999990
 20.5792999999999999  1.5125900000000001 32.7986999999999966
 20.7001999999999988 19.7390000000000008 31.5420000000000016
  3.8172100000000002 17.6236999999999995 34.4847999999999999
  2.6398500000000000  3.3365600000000000 31.7010000000000005
  3.8965999999999998  0.4933020000000000 30.6179999999999986
  1.8876100000000000 18.6314999999999991 30.8481999999999985
  9.0734499999999993 18.3380000000000010 31.9562999999999988
  5.3883900000000002 20.1302999999999983 32.3138999999999967
 10.3925000000000001 19.2657999999999987 30.3468000000000018
  9.0782299999999996 20.9562999999999988 29.0227000000000004
 11.1997000000000000 20.8573999999999984 31.7700999999999993
 15.5188000000000006 18.6312999999999995 30.6748000000000012
 14.4921000000000006 20.2973999999999997 29.3260000000000005
 19.0966999999999985 21.5320000000000000 31.7541000000000011
 16.5951999999999984 19.4409999999999989 32.7650000000000006
  1.1179399999999999  1.1735000000000000 31.7550999999999988
  3.1803300000000001  0.6151529999999999 36.8262000000000000
  0.3617440000000000  0.7939820000000000 34.6499999999999986
  6.7252299999999998  2.5108600000000001 36.1559000000000026
  4.3067500000000001  0.7668710000000000 34.8419999999999987
  6.0842499999999999  1.9195599999999999 33.9590000000000032
  7.3922600000000003  3.7811599999999999 32.6589999999999989
  9.6984800000000000  0.6128300000000000 33.0294000000000025
 10.5208999999999993  3.8541200000000000 35.2297999999999973
 13.3078000000000003  2.7607300000000001 32.7047000000000025
 11.5551999999999992  1.8858800000000000 34.1443000000000012
 13.4087999999999994  0.8027630000000000 35.5244000000000000
 16.6456000000000017  0.0783852000000000 32.2879999999999967
 17.2041000000000004  1.1342500000000000 34.4194999999999993
 15.3850999999999996  2.1300800000000000 35.4418000000000006
 19.7665000000000006  3.3566699999999998 35.5643000000000029
 18.6675000000000004  2.6622599999999998 33.6139000000000010
  1.3930199999999999  2.8686500000000001 34.0805999999999969
  3.8023300000000000  4.9224199999999998 34.7100999999999971
  4.0371300000000003  3.0039600000000002 33.5745000000000005
  4.2221000000000002 10.7834000000000003 31.0914999999999999
  5.5875599999999999  6.2170899999999998 35.2950999999999979
  6.3076499999999998  7.8727499999999999 33.6056000000000026
  8.9720800000000001  5.0090100000000000 33.9902000000000015
  9.7292600000000000  7.2966600000000001 34.2721000000000018
 11.5054999999999996  6.3346200000000001 33.1623000000000019
 12.5921000000000003  5.0895799999999998 34.9241000000000028
 14.5196000000000005  3.9236800000000001 34.2991000000000028
 16.7423999999999999  6.4717599999999997 34.8445999999999998
 15.9390999999999998  5.3277299999999999 32.9123999999999981
 20.7074999999999996  7.0657800000000002 34.8284999999999982
 21.5518000000000001  4.7526700000000002 34.7614999999999981
  2.6173799999999998  7.9838699999999996 36.8757000000000019
  2.1485799999999999  8.3579699999999999 34.5598000000000027
 21.7032999999999987  8.9983299999999993 34.0007999999999981
  5.5602600000000004 10.1067000000000000 33.2150999999999996
  7.7801799999999997 10.3279999999999994 35.2220999999999975
  8.4457699999999996  8.9836299999999998 33.3389000000000024
 14.2495999999999992 13.3561999999999994 33.1649000000000029
 13.3838000000000008 15.0289999999999999 34.7030000000000030
 13.5395000000000003  7.6725599999999998 32.8684999999999974
 14.5379000000000005 11.1593999999999998 33.6921999999999997
 14.8475000000000001  7.8621800000000004 34.8410000000000011
 21.1938999999999993 11.3193000000000001 34.6325999999999965
 17.8949999999999996  9.4291400000000003 32.8917000000000002
 17.6701000000000015 10.7265999999999995 34.8988999999999976
 18.7826999999999984  7.3068600000000004 33.3909000000000020
 19.0594000000000001 10.1663999999999994 36.7085999999999970
  3.5486700000000000 10.1998999999999995 34.4930999999999983
  0.8094680000000000 14.6199999999999992 34.4489000000000019
  1.6222099999999999 12.3640000000000008 34.7710999999999970
  3.9080499999999998 11.4496000000000002 36.5172000000000025
  5.7244700000000002 12.5465000000000000 33.5424999999999969
  4.3447300000000002 13.6620000000000008 32.0009999999999977
  9.3819900000000001  9.8815299999999997 36.9386999999999972
 12.0869000000000000 10.6611999999999991 34.0457999999999998
  8.7118199999999995 12.3762000000000008 34.9996000000000009
  0.6488480000000000 16.8077000000000005 31.7093999999999987
 13.5493000000000006 12.7824000000000009 30.9623999999999988
 11.4751999999999992 17.3591000000000015 36.3314000000000021
 11.0639000000000003 14.9339999999999993 34.6728000000000023
  0.7854290000000000 11.1720000000000006 31.4683999999999990
 20.1861999999999995 13.2771000000000008 33.6976000000000013
 17.7544000000000004 12.9304000000000006 34.5441000000000003
  2.9673600000000002 15.2231000000000005 35.1854999999999976
  5.4542200000000003 18.7487999999999992 30.2219000000000015
  5.9456100000000003 17.1442000000000014 33.9356000000000009
  7.6012800000000000 13.9621999999999993 33.3323999999999998
 11.8524999999999991 19.5877000000000017 33.6953999999999994
  9.5262799999999999 16.9212999999999987 35.0349000000000004
  9.2946399999999993 12.9454999999999991 31.9722000000000008
 10.4915000000000003 16.3367000000000004 32.5065000000000026
 13.3962000000000003 17.3729000000000013 34.9273000000000025
 16.3912000000000013 16.3705999999999996 32.9936000000000007
  0.0192993000000000 16.7091999999999992 33.8821999999999974
 19.7725000000000009 15.8421000000000003 33.4341999999999970
 18.8541999999999987 19.1767000000000003 33.0313000000000017
  3.0284499999999999 19.4337000000000018 32.8986999999999981
  0.3493580000000000 18.9076999999999984 34.9538000000000011
  0.8841280000000000 20.5544000000000011 33.3102999999999980
  6.0807900000000004 20.6633999999999993 34.4975000000000023
  5.3755499999999996 18.8800999999999988 35.7417999999999978
  8.4196799999999996 21.0658999999999992 34.6927000000000021
  9.6662700000000008 19.0137000000000000 34.0441999999999965
 12.4268999999999998 17.6844000000000001 32.5058999999999969
 15.2248999999999999 18.7266000000000012 34.5979000000000028
 13.4761000000000006 20.3576000000000015 35.0245999999999995
 18.5670999999999999 21.6064000000000007 35.8059000000000012
 19.7803000000000004 19.5664000000000016 35.2244000000000028
  0.8489610000000000  0.3321390000000000 39.2610999999999990
  3.0693100000000002  4.3495499999999998 37.0833999999999975
  0.9323350000000000  3.5905000000000000 36.6370000000000005
  0.7126860000000000  1.1378200000000001 37.1122999999999976
  4.8553499999999996  2.9167600000000000 37.8924000000000021
  4.8107400000000000  1.2071200000000000 39.5307000000000031
  8.6499500000000005  0.8505830000000000 36.9480000000000004
  9.9887700000000006  3.1649799999999999 37.4639999999999986
 11.9039000000000001  1.5973500000000000 38.6938000000000031
 14.2809000000000008  1.4595400000000001 38.7759000000000000
 15.5479000000000003  2.9713200000000000 37.6766999999999967
 17.5806000000000004  3.2689699999999999 38.6017999999999972
 19.1194999999999986  1.5127999999999999 38.9213999999999984
 20.1368000000000009  1.1554500000000001 36.7655999999999992
  0.4689950000000000  6.1654200000000001 39.4527000000000001
  2.4562200000000001  6.2713400000000004 38.3111999999999995
  5.1622100000000000  6.7803000000000004 39.0962999999999994
  6.0883900000000004  4.4858500000000001 39.3019000000000034
  4.9164899999999996  7.8150300000000001 36.8350999999999971
  8.2017299999999995  4.9262499999999996 38.2073999999999998
 10.0411000000000001  7.7518000000000002 36.7830999999999975
  8.8171499999999998  7.0296700000000003 38.6953999999999994
  7.4351099999999999  4.7712800000000000 35.9831000000000003
 11.9032000000000000  3.9812400000000001 38.5536000000000030
 13.6800999999999995  6.6201699999999999 36.3759999999999977
 14.0860000000000003  4.8419699999999999 37.7824000000000026
 21.2160000000000011  4.1763800000000000 38.4793000000000021
 18.9292000000000016  4.4755500000000001 37.4600000000000009
 17.7764999999999986  6.5434099999999997 36.9350000000000023
  1.2252600000000000  9.3166899999999995 38.1443999999999974
 21.0465000000000018  7.9814200000000000 38.6572999999999993
  6.1876400000000000 10.2951999999999995 38.7186000000000021
  6.9229900000000004  8.2501800000000003 39.7040000000000006
  5.8423100000000003  9.9228600000000000 36.4299000000000035
  9.4697999999999993 10.4638000000000009 39.2265999999999977
 11.6128999999999998 10.2812000000000001 36.3393999999999977
 12.3640000000000008  8.2019400000000005 37.4864999999999995
 14.8421000000000003 10.9613999999999994 37.8592999999999975
 15.4497000000000000 10.2380999999999993 35.5219999999999985
 17.8627000000000002  9.9459199999999992 38.6462999999999965
 19.6393999999999984  8.5767100000000003 40.3738000000000028
 19.7105999999999995  7.9902400000000000 36.6989999999999981
  1.3979900000000001 11.4608000000000008 37.1383000000000010
  0.4024780000000000 14.9960000000000004 38.0972999999999971
  1.4367200000000000 13.1074000000000002 38.9217999999999975
  6.3785800000000004 14.4169000000000000 36.8479000000000028
  4.5794699999999997 13.5925999999999991 35.5551999999999992
  7.6496199999999996 12.1021000000000001 39.2648999999999972
  8.3643500000000000 13.0199999999999996 37.3072000000000017
  9.5384300000000000 14.9344000000000001 38.1163999999999987
 12.6021999999999998 11.6761999999999997 37.8952000000000027
 11.1270000000000007 11.8239999999999998 39.6749999999999972
 13.4120000000000008 13.8376000000000001 37.9772999999999996
 16.6950000000000003 11.8806999999999992 39.1156999999999968
 17.5667000000000009 13.9821000000000009 38.6826999999999970
 17.3017000000000003 14.5129000000000001 36.3986000000000018
 20.8116999999999983 11.9553999999999991 36.8410000000000011
 20.7259999999999991 12.4511000000000003 39.7631000000000014
 19.2969000000000008 14.5152000000000001 40.0448999999999984
 20.7714999999999996 14.3621999999999996 36.1026999999999987
  2.1155100000000000 16.3413000000000004 37.2449999999999974
  3.6998199999999999 15.6925000000000008 38.9915999999999983
  6.0364199999999997 15.9910999999999994 38.5747000000000000
  6.7215100000000003 17.7188000000000017 37.1482999999999990
 10.0107999999999997 17.9095000000000013 39.6685000000000016
  9.0122300000000006 17.1225999999999985 37.5084000000000017
  7.4172399999999996 15.6806999999999999 35.0108000000000033
 11.6671999999999993 15.1130999999999993 37.0617999999999981
 13.2220999999999993 18.3578000000000010 38.8489999999999966
 15.3249999999999993 17.3318000000000012 37.7933999999999983
 15.0212000000000003 15.1320999999999994 36.4080999999999975
 19.0445999999999991 18.0631999999999984 36.6717999999999975
 18.9950000000000010 16.0485000000000007 35.6921000000000035
  1.0099000000000000 19.5807000000000002 39.1024999999999991
  1.6370700000000000 18.6375999999999991 36.9829999999999970
  3.6026400000000001 20.0641999999999996 36.8524999999999991
  4.6455900000000003 20.4018000000000015 38.9782000000000011
  6.8326900000000004 19.5307999999999993 38.7535000000000025
  8.2836300000000005 21.3895000000000017 38.7267999999999972
 10.3453999999999997 20.0740000000000016 38.8327000000000027
 11.2413000000000007  0.2279870000000000 36.7209999999999965
 12.0029000000000003 19.5651000000000010 37.0739000000000019
 14.1959000000000000 20.3092000000000006 39.5878000000000014
 14.5710999999999995 21.3463999999999992 37.4829999999999970
 16.5615999999999985 18.6997999999999998 36.4363000000000028
 16.7800000000000011 20.8206999999999987 37.3776999999999973
 17.7045999999999992 21.4040999999999997 39.6465999999999994
 20.6244000000000014 18.3183000000000007 38.8031999999999968
  2.6556500000000001  1.4093300000000000 40.5876999999999981
  0.4580480000000000  2.9474800000000001 42.6180999999999983
  1.8410100000000000  3.6138499999999998 40.8682999999999979
  3.0327700000000002  0.4660740000000000 42.7486999999999995
 21.2455999999999996  1.0807899999999999 41.1910999999999987
  6.4215299999999997  1.7044400000000000 41.5257999999999967
  5.3239099999999997  0.1546760000000000 42.8594000000000008
  8.4538100000000007  0.4934380000000000 40.9480000000000004
 11.0169999999999995  1.1305900000000000 40.9819999999999993
 12.8115000000000006  2.6976700000000000 42.0026000000000010
 14.8829999999999991  2.0204499999999999 40.9831999999999965
 16.3905999999999992  3.8741900000000000 40.5574999999999974
 20.3922999999999988  3.1652000000000000 40.2691000000000017
  0.1962460000000000  6.0631300000000001 41.7914000000000030
  2.5128900000000001  6.5902099999999999 42.2800999999999974
  5.6664899999999996  4.0981800000000002 41.6191000000000031
  3.4243899999999998  4.5020499999999997 42.4617000000000004
  9.4716000000000005  5.9311900000000000 41.0352999999999994
  7.3510000000000000  5.6922499999999996 42.5339000000000027
 10.4067000000000007  4.5529700000000002 43.3575999999999979
 11.4147999999999996  4.6405700000000003 40.9091999999999985
 13.0170999999999992  6.3145199999999999 41.1113000000000000
 14.0205000000000002  5.6841799999999996 43.2618999999999971
 15.0091999999999999  5.6961599999999999 39.8659000000000034
 17.7939000000000007  4.9802299999999997 42.2438999999999965
 17.8615999999999993  7.1916099999999998 41.0461999999999989
 20.1553000000000004  4.4442700000000004 42.2685000000000031
  2.4590100000000001  9.6761499999999998 40.1392000000000024
  2.8458299999999999  8.5951000000000004 43.5142999999999986
  1.0406100000000000  9.9083299999999994 42.1981999999999999
  3.7690999999999999  7.7808599999999997 40.7775000000000034
  4.4189200000000000 11.2407000000000004 39.9517999999999986
  4.8366300000000004  9.2938399999999994 42.4033000000000015
  6.7841800000000001  8.0015099999999997 42.0195999999999970
 10.0993999999999993  8.2578099999999992 40.3241999999999976
  9.2563800000000001 11.2309999999999999 42.4725999999999999
  8.8898499999999991  8.8240400000000001 42.2779000000000025
 12.5632000000000001  7.5714699999999997 43.2028000000000034
 12.4169999999999998  8.4221199999999996 40.0088999999999970
 12.8534000000000006  9.6874900000000004 42.2184000000000026
 16.5872999999999990  7.0576200000000000 39.0401000000000025
 15.0039999999999996  9.0906800000000008 39.4632999999999967
 15.2352000000000007  9.7611399999999993 41.7757000000000005
 19.2131000000000007 10.9071999999999996 40.3201999999999998
 21.0855999999999995  8.3671399999999991 42.2272000000000034
 18.5289999999999999 11.2258999999999993 42.5255000000000010
  1.8247100000000001 13.7149000000000001 41.6580999999999975
  0.0646277000000000 12.2185000000000006 41.9849000000000032
  3.6644800000000002 13.4019999999999992 39.7665999999999968
  5.4037199999999999 11.5970999999999993 42.0418999999999983
  4.1577700000000002 13.7913999999999994 42.0452999999999975
  7.6092300000000002 12.5424000000000007 41.5003999999999991
 11.6143000000000001 11.4814000000000007 41.9254999999999995
 13.0752000000000006 13.5731000000000002 42.1741000000000028
 16.4208999999999996 11.8122000000000007 41.4127000000000010
 16.5629999999999988 14.0589999999999993 42.4144000000000005
 20.0792000000000002 12.6912000000000003 43.4579000000000022
 18.7875000000000014 14.4260999999999999 42.4542000000000002
  3.0737899999999998 16.9002000000000017 40.9155999999999977
  0.8812750000000000 15.9662000000000006 41.4821999999999989
 21.4099000000000004 17.2878000000000007 43.2070000000000007
  4.9026100000000001 16.1776000000000018 42.3340000000000032
  6.6684000000000001 15.9512999999999998 40.7287000000000035
  8.5417600000000000 14.8209999999999997 41.5664000000000016
 10.4557000000000002 14.2065999999999999 40.1542999999999992
  9.6661999999999999 18.2676000000000016 42.2918000000000021
  9.5760600000000000 16.1785999999999994 43.2789000000000001
 13.1166000000000000 14.7963000000000005 40.1321999999999974
 11.8735999999999997 15.6489999999999991 42.7479999999999976
 12.0875000000000004 16.9644000000000013 40.3813999999999993
 13.9004999999999992 16.5122999999999998 43.1771000000000029
 15.9704999999999995 14.9575999999999993 40.2571999999999974
 16.2785000000000011 17.2073000000000000 40.1071999999999989
 14.4444999999999997 18.0268000000000015 41.2340000000000018
 17.7900999999999989 18.1799999999999997 41.6167000000000016
 20.8751999999999995 16.3011000000000017 39.9421999999999997
 19.3959000000000010 16.7196999999999996 42.1878999999999991
  2.9634999999999998 19.2230999999999987 40.3342000000000027
  0.4243820000000000 19.1710999999999991 41.8918999999999997
  2.7495900000000000 19.7816000000000010 42.6880000000000024
  4.7489200000000000 18.6108000000000011 43.1674999999999969
  5.5707500000000003 19.9384000000000015 41.3594999999999970
  7.6571199999999999 18.2498000000000005 40.5183000000000035
  7.8825200000000004 20.0735999999999990 42.0187999999999988
 11.9429999999999996 20.8016000000000005 40.3475999999999999
 11.9388000000000005 19.0311999999999983 41.8639999999999972
 13.7882999999999996 18.9441999999999986 43.5125999999999991
 15.7720000000000002 21.5134000000000007 41.0043000000000006
 15.9282000000000004 19.4958999999999989 42.4082999999999970
 19.2039000000000009 19.7366999999999990 40.2974000000000032
 20.3665999999999983 20.7649000000000008 42.1026000000000025
  2.3788999999999998  2.5160700000000000 43.8586000000000027
  8.6859099999999998  5.8259999999999996 44.5803000000000011
 12.7138000000000009  4.0293599999999996 44.0780999999999992
 16.3075000000000010  6.0161100000000003 43.8956999999999979
 10.1951999999999998  6.9712600000000000 43.3316999999999979
 16.6245000000000012  8.1796399999999991 42.8464000000000027
 18.8451999999999984  8.9543900000000001 42.9919000000000011
 14.7515000000000001 14.5178999999999991 43.9876999999999967
  6.4756700000000000 20.2292999999999985 43.9020999999999972
  6.0193099999999999  8.0705799999999996 10.9597999999999995
 15.5574999999999992 10.5161999999999995  8.8511600000000001
  3.8784600000000000 18.4364999999999988  7.0606799999999996
 15.9695000000000000  8.0940399999999997 11.1898000000000000
 17.8530000000000015  4.6322200000000002 11.8969000000000005
 17.3000000000000007 12.3919999999999995  9.8764800000000008
  5.1820399999999998 18.9825000000000017 15.7647999999999993
  2.7316199999999999 19.0689999999999991 12.9571000000000005
  9.6624300000000005  4.3610199999999999 14.7975999999999992
  8.6044400000000003 10.6830999999999996 21.6264000000000003
 20.6977000000000011 12.4756000000000000 17.3792000000000009
  1.7168800000000000 11.6488999999999994 15.7646999999999995
 20.3919999999999995  7.1414200000000001 18.3130999999999986
 14.4305000000000003 10.1783000000000001 20.9080000000000013
 20.3194000000000017 19.4521000000000015 28.8351000000000006
 20.2341000000000015  9.2074400000000001 28.7622000000000000
  5.4703700000000000 20.6907999999999994 30.1640000000000015
 20.5758000000000010 17.2321999999999989 31.6404999999999994
 21.0696000000000012  0.2431810000000000 24.5365000000000002
 14.8566000000000003 15.8629999999999995 33.0253000000000014
  1.8674800000000000 13.5753000000000004 35.9187000000000012
 13.0742999999999991 13.0749999999999993 34.5910999999999973
Cartesian
  0.0000000000000000  0.0000000000000000  0.0000000000000000
  0.0000000000000000  0.0000000000000000  0.0000000000000000
  0.0000000000000000  0.0000000000000000  0.0000000000000000
  0.0000000000000000  0.0000000000000000  0.0000000000000000
  0.0000000000000000  0.0000000000000000  0.0000000000000000
  0.0000000000000000  0.0000000000000000  0.0000000000000000
  0.0000000000000000  0.0000000000000000  0.0000000000000000
  0.0000000000000000  0.0000000000000000  0.0000000000000000
  0.0000000000000000  0.0000000000000000  0.0000000000000000
  0.0000000000000000  0.0000000000000000  0.0000000000000000
  0.0000000000000000  0.0000000000000000  0.0000000000000000
  0.0000000000000000  0.0000000000000000  0.0000000000000000
  0.0000000000000000  0.0000000000000000  0.0000000000000000
  0.0000000000000000  0.0000000000000000  0.0000000000000000
  0.0000000000000000  0.0000000000000000  0.0000000000000000
  0.0000000000000000  0.0000000000000000  0.0000000000000000
  0.0000000000000000  0.0000000000000000  0.0000000000000000
  0.0000000000000000  0.0000000000000000  0.0000000000000000
  0.0000000000000000  0.0000000000000000  0.0000000000000000
  0.0000000000000000  0.0000000000000000  0.0000000000000000
  0.0000000000000000  0.0000000000000000  0.0000000000000000
  0.0000000000000000  0.0000000000000000  0.0000000000000000
  0.0000000000000000  0.0000000000000000  0.0000000000000000
  0.0000000000000000  0.0000000000000000  0.0000000000000000
  0.0000000000000000  0.0000000000000000  0.0000000000000000
  0.0000000000000000  0.0000000000000000  0.0000000000000000
  0.0000000000000000  0.0000000000000000  0.0000000000000000
  0.0000000000000000  0.0000000000000000  0.0000000000000000
  0.0000000000000000  0.0000000000000000  0.0000000000000000
  0.0000000000000000  0.0000000000000000  0.0000000000000000
  0.0000000000000000  0.0000000000000000  0.0000000000000000
  0.0000000000000000  0.0000000000000000  0.0000000000000000
  0.0000000000000000  0.0000000000000000  0.0000000000000000
  0.0000000000000000  0.0000000000000000  0.0000000000000000
  0.0000000000000000  0.0000000000000000  0.0000000000000000
  0.0000000000000000  0.0000000000000000  0.0000000000000000
  0.0000000000000000  0.0000000000000000  0.0000000000000000
  0.0000000000000000  0.0000000000000000  0.0000000000000000
  0.0000000000000000  0.0000000000000000  0.0000000000000000
  0.0000000000000000  0.0000000000000000  0.0000000000000000
  0.0000000000000000  0.0000000000000000  0.0000000000000000
  0.0000000000000000  0.0000000000000000  0.0000000000000000
  0.0000000000000000  0.0000000000000000  0.0000000000000000
  0.0000000000000000  0.0000000000000000  0.0000000000000000
  0.0000000000000000  0.0000000000000000  0.0000000000000000
  0.0000000000000000  0.0000000000000000  0.0000000000000000
  0.0000000000000000  0.0000000000000000  0.0000000000000000
  0.0000000000000000  0.0000000000000000  0.0000000000000000
  0.0000000000000000  0.0000000000000000  0.0000000000000000
  0.0000000000000000  0.0000000000000000  0.0000000000000000
  0.0000000000000000  0.0000000000000000  0.0000000000000000
  0.0000000000000000  0.0000000000000000  0.0000000000000000
  0.0000000000000000  0.0000000000000000  0.0000000000000000
  0.0000000000000000  0.0000000000000000  0.0000000000000000
  0.0000000000000000  0.0000000000000000  0.0000000000000000
  0.0000000000000000  0.0000000000000000  0.0000000000000000
  0.0000000000000000  0.0000000000000000  0.0000000000000000
  0.0000000000000000  0.0000000000000000  0.0000000000000000
  0.0000000000000000  0.0000000000000000  0.0000000000000000
  0.0000000000000000  0.0000000000000000  0.0000000000000000
  0.0000000000000000  0.0000000000000000  0.0000000000000000
  0.0000000000000000  0.0000000000000000  0.0000000000000000
  0.0000000000000000  0.0000000000000000  0.0000000000000000
  0.0000000000000000  0.0000000000000000  0.0000000000000000
  0.0000000000000000  0.0000000000000000  0.0000000000000000
  0.0000000000000000  0.0000000000000000  0.0000000000000000
  0.0000000000000000  0.0000000000000000  0.0000000000000000
  0.0000000000000000  0.0000000000000000  0.0000000000000000
  0.0000000000000000  0.0000000000000000  0.0000000000000000
  0.0000000000000000  0.0000000000000000  0.0000000000000000
  0.0000000000000000  0.0000000000000000  0.0000000000000000
  0.0000000000000000  0.0000000000000000  0.0000000000000000
  0.0000000000000000  0.0000000000000000  0.0000000000000000
  0.0000000000000000  0.0000000000000000  0.0000000000000000
  0.0000000000000000  0.0000000000000000  0.0000000000000000
  0.0000000000000000  0.0000000000000000  0.0000000000000000
  0.0000000000000000  0.0000000000000000  0.0000000000000000
  0.0000000000000000  0.0000000000000000  0.0000000000000000
  0.0000000000000000  0.0000000000000000  0.0000000000000000
  0.0000000000000000  0.0000000000000000  0.0000000000000000
  0.0000000000000000  0.0000000000000000  0.0000000000000000
  0.0000000000000000  0.0000000000000000  0.0000000000000000
  0.0000000000000000  0.0000000000000000  0.0000000000000000
  0.0000000000000000  0.0000000000000000  0.0000000000000000
  0.0000000000000000  0.0000000000000000  0.0000000000000000
  0.0000000000000000  0.0000000000000000  0.0000000000000000
  0.0000000000000000  0.0000000000000000  0.0000000000000000
  0.0000000000000000  0.0000000000000000  0.0000000000000000
  0.0000000000000000  0.0000000000000000  0.0000000000000000
  0.0000000000000000  0.0000000000000000  0.0000000000000000
  0.0000000000000000  0.0000000000000000  0.0000000000000000
  0.0000000000000000  0.0000000000000000  0.0000000000000000
  0.0000000000000000  0.0000000000000000  0.0000000000000000
  0.0000000000000000  0.0000000000000000  0.0000000000000000
  0.0000000000000000  0.0000000000000000  0.0000000000000000
  0.0000000000000000  0.0000000000000000  0.0000000000000000
  0.0000380193840128  0.0001199191596938  0.0000533251201709
  0.0000326278312266  0.0000719349859356 -0.0000188538171978
  0.0000249340832473 -0.0000431765682749 -0.0000466048808973
  0.0000078783715150 -0.0000949669873598  0.0000862490525191
  0.0000042655430301  0.0000075348942140 -0.0000484816236425
 -0.0000952652419441 -0.0000010456784191  0.0000462757600142
  0.0000053006407691 -0.0000479881217732  0.0000058116215774
  0.0000568704376001 -0.0001151510343600  0.0000706048638063
  0.0000902979213103  0.0000008314052911 -0.0000608554203311
  0.0001804508427986 -0.0000758499811287  0.0002223112864518
  0.0001225270030265 -0.0001204672159516  0.0000082308574684
  0.0000182959626847 -0.0001384647804878  0.0000055366961723
 -0.0000045119709453  0.0000885080348941  0.0001592636410895
  0.0001235922492434  0.0001199324393805  0.0001979157842265
 -0.0001042527185330 -0.0000809594303009 -0.0000853079893181
  0.0000210653157201  0.0000037453023322  0.0000836010112160
 -0.0001357962812889  0.0000257546243190 -0.0000518966565782
  0.0001305206565782  0.0000739251443831 -0.0000995929841552
  0.0001324594908314 -0.0001034318903329  0.0000355681692006
  0.0000011246781983  0.0000459785821613 -0.0000087467912409
 -0.0000208684533381  0.0002084114025280  0.0000494406323660
  0.0000352439653908  0.0002385982837814 -0.0001152802421221
 -0.0000195319067118 -0.0000561831240876  0.0000494406323660
  0.0000325529625067 -0.0000687108933594  0.0000828534007477
 -0.0000296865241944 -0.0000803776364607 -0.0000106203037921
 -0.0001730397009080  0.0000755219369770 -0.0000963240277728
 -0.0000088701128716  0.0001287673790280  0.0000132651507922
 -0.0000240878082962 -0.0000265186011038 -0.0000820031418907
 -0.0000530878803632 -0.0001063652654442 -0.0000384041360157
 -0.0001920185266156 -0.0000792176378850  0.0000920831418907
  0.0000991780836746 -0.0000633990186933 -0.0000079401758946
  0.0000876265508278 -0.0001501189617233 -0.0000126350476055
  0.0000918828698594 -0.0000988870072993  0.0000006682553676
  0.0000196428100409 -0.0000426608139576 -0.0000710567320634
  0.0000295173696991 -0.0001598910165569  0.0000362262674025
  0.0000760039537119 -0.0001317872515578 -0.0000076098706071
  0.0000777891742923 -0.0002271569364429  0.0000399478098629
  0.0000411925113050 -0.0000320412279865 -0.0000875536920064
 -0.0000359050425494  0.0000581657454157  0.0000404057795976
  0.0000030338700374  0.0000949770368524  0.0001049307003739
 -0.0000223101607264  0.0001949396987716 -0.0000923788841018
  0.0000483926138508 -0.0000607545664946 -0.0000471522193342
  0.0000291601102368 -0.0000080122451130  0.0000006689731885
  0.0001770149930568 -0.0000157485239808 -0.0001110953462703
  0.0001081580231440 -0.0001154295488695 -0.0000003562254413
  0.0001045936834609 -0.0000673904618124 -0.0001267014904753
 -0.0000055170996617 -0.0001605442335766  0.0001334831034360
  0.0000252139975076 -0.0000918369293217  0.0000914299248709
  0.0001131475962257 -0.0001354057867189 -0.0000941569264732
  0.0000606088488517 -0.0000782406836390 -0.0000185175539968
  0.0000159120435820 -0.0000081663971515 -0.0000665775296422
 -0.0001874370347160  0.0000146342864874  0.0000173089589461
 -0.0001018020779776  0.0000717293302475  0.0001322940331138
 -0.0000460618493858 -0.0000432515805590 -0.0000424691557771
  0.0001429030671177  0.0001252662075841 -0.0000245588782624
  0.0000816923254406  0.0000080934306569 -0.0000376705230550
 -0.0000188843963682 -0.0000853736699306 -0.0000423984504184
 -0.0001974653516112  0.0000443857375823  0.0001285376763397
  0.0000207891341285 -0.0001119721645006 -0.0000308791477301
 -0.0000449556873776  0.0002216365348051 -0.0000402500124622
 -0.0001705908549048 -0.0000363895716575 -0.0000296830068720
 -0.0000525082399858  0.0000741674089372  0.0000985851636105
 -0.0000360913170732  0.0001029444899412 -0.0000848162820011
 -0.0001607929585188  0.0000525685369414  0.0000498505081004
  0.0000170427191739 -0.0000346217582339 -0.0001229092426562
 -0.0000977428007833  0.0000622451215952 -0.0000917393056792
  0.0001091094947481  0.0000450773580203 -0.0000827945394339
  0.0000145563311376  0.0001212718931814 -0.0000793378728859
 -0.0000800022161296 -0.0000180756993413  0.0000129355633256
 -0.0000396793448460  0.0000838439935909  0.0001315446280933
  0.0000962662431903  0.0000119602241766 -0.0001677285440627
 -0.0000555769243368 -0.0000158866686131  0.0000599717828022
  0.0000427695638241  0.0001564070728147  0.0000768028883746
  0.0000531934000356  0.0000473481844401  0.0000548332618836
  0.0000147838803632  0.0000425136606730 -0.0000023791671284
  0.0001720318803632  0.0001481040384547  0.0000986856585366
  0.0000883339633256  0.0000140256820367  0.0000720193298914
  0.0001022647135482  0.0001457384596760  0.0000311107885348
 -0.0001260030507388  0.0001783088652306 -0.0000251985643582
 -0.0000442970867011 -0.0000918024739185  0.0000260870830693
  0.0000652768381698  0.0000242513996795 -0.0000038673318853
 -0.0000120058058038  0.0000086941390778  0.0001379676895140
  0.0000815451721560  0.0001207381933416 -0.0000440020623108
 -0.0000859658721738 -0.0000136796564714 -0.0000828376086879
  0.0000810236752715  0.0001123666070856  0.0000733444272743
  0.0000978834936799  0.0000283587708741  0.0000478477877871
 -0.0000759587309952  0.0001120758896208 -0.0000772170710344
  0.0001157102168417 -0.0000624726708207 -0.0000638659611892
 -0.0000595730332918 -0.0000456652533381  0.0000218614867723
 -0.0001107149011928  0.0002191571814136  0.0000333504615275
  0.0001258968132455  0.0002253508990564  0.0000142922089372
 -0.0000666737176429  0.0001330868662987 -0.0000664924678654
  0.0000641832380274  0.0001348968517002  0.0000355288685063
 -0.0000273044714260  0.0000002034799729 -0.0000833932020652
 -0.0000595184789033 -0.0000835722983799  0.0001457363062133
 -0.0000266874684707 -0.0001573883339861 -0.0000479188520563
 -0.0000922295773545 -0.0000191847685241  0.0000564655866121
  0.0000463417995371 -0.0000401358789389  0.0001027431411786
 -0.0000554520235001 -0.0000205882878405 -0.0000533667537832
 -0.0001275352394517 -0.0000443175445968 -0.0001376683581983
 -0.0000613198504540  0.0001660947836924 -0.0000901561516824
 -0.0002523790094356  0.0000445795492256 -0.0000208445857931
 -0.0000174549996083  0.0000482357699840  0.0001010358041659
  0.0001119998006053  0.0000286770526616 -0.0001019966074417
  0.0000539751069966  0.0001103211764287  0.0001389633071034
 -0.0000563162798647 -0.0001264943991455  0.0000578545700552
  0.0000284149044686  0.0000735892042015 -0.0000270068628805
 -0.0000300812539078  0.0000165186740253 -0.0001055587936621
  0.0001542428427986  0.0001156233605127  0.0001134117543173
 -0.0000160037810931  0.0001158451671711  0.0000652517144383
 -0.0000055658755920 -0.0001015483282891  0.0000826857895674
  0.0001404904710700  0.0000611870535873 -0.0001453799081360
  0.0000803001118035  0.0000066217542460  0.0000393764244259
  0.0000543760099697 -0.0000255636480684 -0.0001106815225209
 -0.0000621094534449 -0.0002004321053943  0.0000643763318497
  0.0000515158525904 -0.0000474249912765 -0.0000396947779954
 -0.0000321063343422  0.0000330765769628  0.0001609020672957
 -0.0000902103471604 -0.0000463845098807  0.0000289362218978
  0.0001869284586078 -0.0000059064816094  0.0000633868157379
 -0.0001934401709097 -0.0000830439821969 -0.0000512179569165
 -0.0000564971707317  0.0000431019149012  0.0000681043346982
  0.0000999425629340 -0.0000308528037030  0.0000818807534271
  0.0001513841210611  0.0000748536457184  0.0000561903022966
 -0.0000206648793306  0.0001298075015133  0.0000420668171622
 -0.0001379239024390  0.0001108053466263  0.0000701041837280
  0.0000940628919352 -0.0000731646131387  0.0000469300537654
  0.0000379727256543  0.0000518133893537 -0.0000003922783550
  0.0000519662852056 -0.0001824065458430  0.0001357844372441
 -0.0000132461644294  0.0000314251581983  0.0000482949902083
 -0.0000385588264198  0.0001748216912943 -0.0000955541648567
  0.0001001037137262 -0.0000627752323304  0.0000331037464839
  0.0001469928517002 -0.0001008039480150  0.0001449133245505
 -0.0000982944461456  0.0000606942695389  0.0002098054107175
  0.0000753844742745  0.0002569561944098  0.0001300942709631
  0.0000292849751825  0.0000959464539790 -0.0000454150927541
  0.0000012928564572 -0.0001122431418907 -0.0000888475641802
  0.0001743174221114  0.0000314381148656  0.0000698428969201
 -0.0000902300872352  0.0001065590770874  0.0000507312743457
 -0.0000475283574862  0.0002473201666370  0.0000845061833719
 -0.0001055735089906 -0.0001113437123019 -0.0001872626042371
  0.0001699236403774  0.0001215906056614  0.0001388007206694
  0.0000032449237387  0.0000782299163254 -0.0000433021869325
 -0.0000055559337725 -0.0000746512202243 -0.0002071871589817
  0.0000940000826064  0.0000280818714616  0.0000301727042905
  0.0000839714068008 -0.0000839186469646  0.0001417918803632
  0.0001445002186220 -0.0000609717073171  0.0001006209036852
  0.0000195407717999  0.0001114416948549 -0.0000397705081004
 -0.0001175955734378  0.0000532109866477 -0.0000135587036496
 -0.0000101190853481 -0.0000352568502759 -0.0000987592351789
 -0.0000435035356952  0.0000122268228592 -0.0000188313494036
 -0.0003325111511483 -0.0000005367900588  0.0000800955328467
  0.0000230585966886 -0.0000027258710344 -0.0000935729791704
 -0.0000120932722806  0.0000158230337903 -0.0001943392415880
  0.0002155092155955 -0.0000286836207228 -0.0000608317322414
 -0.0000472146697525  0.0000295366431903 -0.0000684112031333
  0.0001594570938223 -0.0000420757899234 -0.0000472516375289
  0.0000157179807014  0.0001829104561154  0.0000350924692897
  0.0000590597913477 -0.0000339025734734 -0.0002057217276126
 -0.0000148197714082  0.0001179028007833 -0.0000152458340039
  0.0000390839124088 -0.0000751974819299  0.0000942527555635
  0.0000534252561866  0.0001213303955848 -0.0000629360242122
 -0.0000392920804700  0.0001350106263130 -0.0000741702802208
 -0.0000922823371907 -0.0000374609193520 -0.0000278543581271
 -0.0000924233889977 -0.0000112973883568  0.0000416052583229
 -0.0000039798503116  0.0001288782823571  0.0001126828071925
 -0.0001338380658715  0.0001008588613139 -0.0000757534342176
  0.0001328934135660  0.0000164041457006 -0.0000977201894250
 -0.0000317024883034 -0.0000143300380986 -0.0000710452469290
 -0.0002129164465017 -0.0001608281317429 -0.0000097416192273
 -0.0000461207106997  0.0000299278914723  0.0000061954045220
  0.0001364764165925  0.0001675526779420 -0.0000895014990208
  0.0002470344739185 -0.0001175022567207  0.0000218469150080
  0.0001650288196546 -0.0001264782481752  0.0000108786834253
 -0.0000183874130675 -0.0000425398611358  0.0000043207075663
  0.0001386977133701 -0.0000038512526972  0.0000663585942674
 -0.0000767903265088 -0.0000954400313335  0.0001634811977924
 -0.0000831067915257  0.0001075148556169  0.0002287246572904
 -0.0000031190717892  0.0000246196418017  0.0001417724991989
  0.0000839430528752  0.0001059988178743  0.0001368048196546
 -0.0001313393313156 -0.0000461110201175  0.0001181831098451
 -0.0000712591575574  0.0001269957970447  0.0001320366943208
  0.0000087816414456  0.0000016897504006  0.0000043614797935
 -0.0000137527306391  0.0001570337304611  0.0000429910115720
 -0.0000529112964216 -0.0000853794124978 -0.0000052385133701
 -0.0000410012120349 -0.0000421569036852  0.0002001464126758
  0.0000237484943564 -0.0000481550151326 -0.0000336690663343
  0.0000194548127470  0.0000126632938579  0.0000378905351611
  0.0001383858201887  0.0001795496186576  0.0001124771515044
 -0.0000829007769272  0.0000607613857931  0.0000650589795264
  0.0000985054854905  0.0000062181594445  0.0001511152971337
 -0.0000209142862026 -0.0001098151126936  0.0000480459063557
 -0.0000106847282179  0.0001671916140288  0.0001396997913477
 -0.0000727522250312  0.0000576126644116  0.0000292023898878
  0.0001186938394161  0.0001199805333808  0.0001428675349831
 -0.0000961621591597 -0.0000288469249777  0.0001032230044508
  0.0000212100643048  0.0001731531166103  0.0000133185207762
  0.0000774693850810 -0.0001335272494214 -0.0000242305828734
 -0.0000251040991276 -0.0000235409723340  0.0000981433448460
 -0.0000261666535161  0.0001043122976678 -0.0000528897617946
  0.0001512764479259  0.0000865236190137  0.0000745715421043
  0.0000259669916325  0.0000475319465907  0.0001781699668862
  0.0000605316831049  0.0000083048648033  0.0000311528887306
 -0.0001034006651237 -0.0000218791092754 -0.0000381618714616
 -0.0001954726807905  0.0000096514250312  0.0000247857096671
 -0.0000488495068542 -0.0000948740295531  0.0001916187003739
 -0.0000106367418907  0.0002082821947659  0.0000709896158092
 -0.0000988949033292  0.0001888130973829 -0.0000278027826954
 -0.0000747463314937 -0.0000223024441517  0.0000078102144205
  0.0000868319230906  0.0000957731002314  0.0002291435057860
  0.0000302935494392  0.0000868448438668 -0.0000935241673491
 -0.0001644710728147  0.0000982969585188  0.0001332846259569
 -0.0000939164564714 -0.0000869539526438 -0.0000641746241766
  0.0000904795299982  0.0000492417959765 -0.0000583355100588
 -0.0000447629524657 -0.0003026347274346  0.0000744810966708
  0.0000712010140644  0.0001712228962079  0.0000115273063913
  0.0000716108897988 -0.0000164512706427  0.0002451153797401
  0.0001613209157913 -0.0001476134078690  0.0000797183179633
  0.0000939448103970  0.0000690335538544  0.0000114372557593
 -0.0001082315997864  0.0000538383621150  0.0001931440697881
  0.0000140061214171  0.0000538541541748  0.0001258838924693
  0.0001161502410539  0.0000357653546021 -0.0001107830941784
  0.0000505528958519  0.0000081063873242  0.0000061779255831
  0.0000309230424782 -0.0000791688260637  0.0000189359359088
 -0.0000807587993591  0.0000368450290190 -0.0000280919568453
 -0.0000154435577711 -0.0000507851109133  0.0000340693232686
  0.0000106750735268 -0.0002145333380808  0.0000355034935375
  0.0000482443838348 -0.0000963757108777 -0.0000070927524301
  0.0000798507559195 -0.0000764192131031  0.0001084831960121
  0.0000899544440093 -0.0000675343849030  0.0000795801374399
  0.0000155776467153 -0.0001333976827488  0.0000530071255118
 -0.0000132538451130 -0.0000647801061065 -0.0001147709481930
 -0.0000517552458608 -0.0000283977485490 -0.0000550224076909
  0.0001055505387217  0.0001858129649279 -0.0000695913006943
 -0.0000085729350187 -0.0000892678483176 -0.0001490023913121
 -0.0000256421776749 -0.0000095014363539  0.0000178235647499
  0.0000924553320278  0.0000824761858643 -0.0000254906097917
  0.0001026071141179 -0.0002068318376357  0.0001873778144917
  0.0000106734943208  0.0001350676930746  0.0000687740615987
  0.0000937423849030  0.0000390910906178 -0.0000643023962970
  0.0000550403532135 -0.0000972722691828  0.0000233157919174
  0.0000376669339505  0.0001445027309952  0.0000510991575574
  0.0001019434886950 -0.0000312074431191 -0.0000471522193342
  0.0000476270578601 -0.0000218268160228  0.0000654448082606
  0.0001843360484244  0.0001478391625423  0.0003184849307459
 -0.0000367183336301  0.0001953144012818 -0.0001997114132099
 -0.0000982380972049 -0.0000154942000356  0.0001599886401994
  0.0001811392330425  0.0000775727512907 -0.0000163376037030
 -0.0000153536865943  0.0002068677286808  0.0001384884685775
  0.0001489137404308  0.0000847373217020  0.0001036773850810
  0.0000654415780666 -0.0001082294463237  0.0001321386248887
  0.0000245913955492 -0.0001162525305323  0.0000936526572904
 -0.0000024437064056 -0.0000856123453801 -0.0001130356161652
 -0.0000261438268115 -0.0000615129442763  0.0000132773178565
 -0.0001502847783514 -0.0001108358540146 -0.0000385035542104
  0.0000938906149190 -0.0000553041523945 -0.0001441183379028
  0.0000731035983621  0.0000146808012818 -0.0000927729677764
  0.0000303998946057  0.0000531151575574 -0.0000933249720491
  0.0001206552850276  0.0001132452198683 -0.0000290817600855
 -0.0000166575364785 -0.0000446821976144 -0.0000191281683461
  0.0001305791589817 -0.0000724457155065 -0.0001560377539612
  0.0001374189154353  0.0000291595718711 -0.0001280301769628
  0.0001646494513085  0.0000298645078868  0.0000442324828200
  0.0000325986876981  0.0000862461812355  0.0000660000427274
  0.0000939462460388  0.0001352087448816  0.0001823562983799
 -0.0000607233412854 -0.0001190441360157 -0.0001429784383123
 -0.0000062829786719 -0.0001749351069966  0.0002200225145095
 -0.0000562430621328  0.0000798116346804 -0.0001644405654264
 -0.0001114926601389  0.0001101384910094 -0.0000405766209720
 -0.0000307183558483  0.0000064132631654  0.0000745148342532
 -0.0000563256115364  0.0000737790678298  0.0000849113932704
  0.0000153088227880  0.0001129376336122  0.0000248249026883
  0.0000267417716219 -0.0001416515463771  0.0000802825251914
  0.0000189359359088 -0.0000792309175717  0.0000163423413210
 -0.0001231468413744  0.0002342174228236  0.0000611730560798
 -0.0000315123734378 -0.0000529848730639  0.0000759048944276
 -0.0000980636667260 -0.0000236520192273  0.0000699846665480
  0.0000391323653196 -0.0000658966765177 -0.0000898851742923
  0.0000884624532669  0.0000064248559729  0.0000715821769628
 -0.0000646971977924  0.0001356710215417 -0.0001259266028129
  0.0000423403069254  0.0002567290040947 -0.0001087093095959
  0.0001689707331316  0.0000176236875200  0.0000160177068186
  0.0000520054064447  0.0000684711411786 -0.0001710369805946
  0.0000574206473206  0.0001519458159160  0.0000465104874488
  0.0000031377279544 -0.0000940919636817 -0.0000369455239452
 -0.0001293369699128  0.0000623258764465  0.0000406964970625
  0.0002364627666014 -0.0001911169435642  0.0000846045248353
 -0.0000692366971693  0.0000171667227346 -0.0001276500907958
 -0.0001172269724052 -0.0001946870258145 -0.0000572813900659
 -0.0000113365095959  0.0000658636567563 -0.0000344521371551
 -0.0000827755171800 -0.0000040572672957 -0.0000049676795442
  0.0000372671077087  0.0000169856165213 -0.0000192785518248
 -0.0001021096642336 -0.0000050100309774 -0.0000842868890867
  0.0001413213487627  0.0000366210688980  0.0000900470429055
 -0.0001173712544063  0.0000286129512551  0.0001452657746128
  0.0000045070179811 -0.0000024416821506 -0.0000790948905109
 -0.0000978773922022  0.0002644294278084 -0.0000815254320812
 -0.0000210129506854 -0.0000324476581805  0.0001286812405199
  0.0000442432501335  0.0000065904213637  0.0001159341769628
  0.0001159679145451 -0.0000246491083497  0.0000330298827132
  0.0000974316254228  0.0000468439152573  0.0001670494854905
  0.0001042322606374 -0.0001240276076197  0.0000591832565426
  0.0001220299120527  0.0001063254263842  0.0000295680119637
  0.0000917917066049  0.0000265441555279 -0.0001369322328645
  0.0000214055269361 -0.0000675548427986  0.0000231185347338
  0.0000659817382945 -0.0000337346751647 -0.0000768305244793
 -0.0000431212960655  0.0000452345607976 -0.0000491610411252
 -0.0000793845312444 -0.0000878838896208 -0.0000528319772120
  0.0000149484408047  0.0001104119807727 -0.0001345235848318
 -0.0000728186234645 -0.0002173902652662 -0.0000142850307281
 -0.0000162904428699  0.0001182800156667  0.0001345964436532
 -0.0001020253202777  0.0001203010404130 -0.0003289148684351
  0.0002467304767670  0.0000358653111625 -0.0001252532868079
 -0.0000537138201887  0.0000057373988962  0.0000407349004807
  0.0000248180474987  0.0000276225737582 -0.0000321333961901
 -0.0000454057610824 -0.0000311461412142 -0.0000544348712836
  0.0000401082428343 -0.0001541717785295 -0.0000358307839772
 -0.0001204808545487  0.0000146710030265  0.0000234904377426
  0.0000454606743813 -0.0001510352601033  0.0001461059839772
 -0.0001773599059996  0.0001016409271853  0.0000359990770874
  0.0001640856029909  0.0000383305593733  0.0000940072608154
 -0.0002603245689870 -0.0000043872854549  0.0000511648381698
 -0.0001216656179455 -0.0000897236645896 -0.0000960232608154
  0.0000508988855261 -0.0001931336613851  0.0000459315648923
 -0.0000752071725120  0.0001385365625779 -0.0000969212547623
  0.0000699570304433 -0.0001297070065871  0.0002156890297312
  0.0000864001538188 -0.0002617411885348 -0.0000570807591241
  0.0000324046965996  0.0000358062703934  0.0000391115485134
 -0.0001011560391668  0.0003068250069432 -0.0002105203603347
 -0.0001275244721382 -0.0001035047491544  0.0001648913569521
  0.0000245316010682  0.0000087172170198 -0.0002996873548157
 -0.0000484640370304  0.0001013380067652  0.0001452449578067
 -0.0001523208773367  0.0000133021544597  0.0000186681169307
  0.0001311702844935  0.0001973487057148  0.0000256986342888
  0.0001980234573616 -0.0000408709275414 -0.0000098256042727
 -0.0000722863592665 -0.0001379719964394 -0.0000548985835855
  0.0000156918879117 -0.0000128511116966 -0.0001083270699662
  0.0001710064732063  0.0001142695502938  0.0001950990550116
  0.0000189355411074  0.0001275481602279  0.0000277205563112
 -0.0000457539042193  0.0000811439102724 -0.0000569117123019
  0.0001289920569699 -0.0000565474181948 -0.0000528811479437
  0.0000215271975788  0.0000751992764821  0.0000307509808083
  0.0000874941128716 -0.0000029321619939  0.0000045256095425
  0.0000460991760726 -0.0000054291307103  0.0002781505743279
  0.0001753126807905  0.0001430581164323 -0.0000856005013352
  0.0000624446758056  0.0000731897368702  0.0000740762456827
  0.0000410607911697  0.0000716521645006  0.0000975622688268
  0.0001029078810753  0.0001143696863094 -0.0000033747344704
  0.0001097806572904  0.0001333815317785 -0.0001737887470180
 -0.0000875601523945 -0.0000154681431369  0.0000922676218622
 -0.0000170971299982  0.0001139738080826  0.0001307797899234
 -0.0000279222639843  0.0000074568670821  0.0000537873968310
 -0.0001240936471426 -0.0000218642144917  0.0000440777924159
  0.0000696616471426  0.0000605876731351  0.0001396229845113
  0.0001835898735980 -0.0000446276432259 -0.0000000756170482
 -0.0000352803230194 -0.0000250736635215  0.0001057867017981
  0.0000882514139220 -0.0000325457125156  0.0000250648343244
  0.0000864328146698  0.0000781229610112  0.0000399122777283
 -0.0000366185565248  0.0000539029659961  0.0001524551098451
  0.0001366429510415  0.0000324746841374  0.0000197597430657
 -0.0000254666345736  0.0001526094413388 -0.0001537127320634
  0.0000779743720847 -0.0000375531593377  0.0001554749823749
  0.0000524849108065  0.0000732798233933  0.0000419383272209
 -0.0001589338023856 -0.0000683397799537 -0.0001875335816272
 -0.0000522526957451  0.0001040255282179  0.0001177039643938
  0.0001411099505074  0.0000642621983265  0.0001682364023500
 -0.0000660492134591 -0.0001207740843867 -0.0001482074046644
  0.0000116665636461  0.0000541818394161 -0.0000046994298736
  0.0000123642137796 -0.0001589714879829  0.0001027887228058
 -0.0000063700862382  0.0000871043361225 -0.0001372753512551
 -0.0000091481249065 -0.0000339183296422 -0.0000521784012818
  0.0001187282948193  0.0000072669675628 -0.0000769478881965
 -0.0001240857511127  0.0000804996660139  0.0001007275000890
  0.0001357503407513 -0.0000059062662631  0.0000520997998932
 -0.0000342997796689  0.0000776556596048 -0.0001406501862204
  0.0000762318618480 -0.0000830752074061 -0.0001157608232152
  0.0001535447619726  0.0001537026825708 -0.0000110488428699
  0.0000971574178387  0.0000896159914545  0.0000778089143671
  0.0001387486786541 -0.0000683860794018 -0.0000596100010682
  0.0000241577599430 -0.0000673319594089 -0.0000367567370482
 -0.0000305783448816 -0.0000465560690760  0.0002283908705715
  0.0000640429040413  0.0001842316054834  0.0000748435962257
  0.0000274011260103 -0.0000931290069432  0.0000684840619548
  0.0000080594777283 -0.0000293069405020 -0.0000218113110913
  0.0000191839789211  0.0002262331009436  0.0001874747203133
 -0.0000336245255474 -0.0001038457140823 -0.0000837399095603
  0.0001266831860424 -0.0000170383763575 -0.0000361982723874
 -0.0000588663386149 -0.0001081095702332 -0.0000972557593021
 -0.0000702341093110 -0.0000741455153997  0.0000326865489763
 -0.0000334795616165  0.0000879197806658 -0.0001239773601567
 -0.0000705409777461 -0.0001769198817874  0.0001069276781200
  0.0001286550400570  0.0000052085802386  0.0001029638711056
  0.0000611820288410  0.0000980302880541  0.0001217090461100
  0.0001299690112160 -0.0000194296172334  0.0001349618144917
  0.0001396420067652 -0.0000266672618124 -0.0000107164559017
 -0.0001799641602279  0.0000864970596404  0.0000672648431547
 -0.0000124960415880  0.0000422437600142  0.0001807067459498
 -0.0000331485743991 -0.0001102142211145  0.0000863377034004
  0.0001703087512907  0.0001793059184618  0.0001871093494748
 -0.0000580150030265  0.0000802853964750  0.0001182617112338
  0.0000349556526260 -0.0000476098301584  0.0000405177596582
 -0.0000781186540858  0.0000336305911341  0.0000238990213993
  0.0000763201538188  0.0001079724664412 -0.0000192894985936
  0.0000021194595264  0.0000298158037387  0.0000028085245220
 -0.0002265959594089 -0.0000199110238205 -0.0001702118454691
  0.0000849225194944  0.0001815799750757 -0.0000150351176785
  0.0001777547074951 -0.0000436445875022  0.0000373223799181
 -0.0001005505572370 -0.0000264453833719 -0.0001274254128538
  0.0000015491256970 -0.0001216950486025 -0.0000380588641624
 -0.0000980679736514 -0.0000412144048424  0.0001178780359623
  0.0000389324521987 -0.0001800635784226 -0.0000536470628449
 -0.0001442364194410 -0.0000004184824070 -0.0000422014085811
 -0.0001284996318319 -0.0003508076880897  0.0000550733729749
 -0.0000185087606908 -0.0000717871148300 -0.0001769267010860
  0.0000014110600249  0.0001592471312088  0.0000034428161937
  0.0000709881801673  0.0001418593555279 -0.0001670659953712
  0.0001455424945701  0.0001155627046466 -0.0000075279313513
  0.0000548562321524  0.0001482461669931  0.0002342027074951
  0.0001084261292505 -0.0000807404949261 -0.0000480387281467
  0.0000482321808795  0.0000994422417661 -0.0000697047163967
 -0.0001449380893716 -0.0000112269701264 -0.0000572713405733
  0.0001252227794196 -0.0000538961466975  0.0001422351347694
 -0.0000370187416771 -0.0002786946825708 -0.0001407277108777
  0.0001217578579313  0.0000330376351789 -0.0000131780432259
 -0.0001311846409115 -0.0000546667274346 -0.0002786720712124
 -0.0000264608524123  0.0000561027281467  0.0001182591988606
 -0.0000880432458608 -0.0002558801808795 -0.0000835259989318
 -0.0000651092269895 -0.0000216111108421 -0.0001868595478013
 -0.0003278517756810  0.0000723811116254  0.0000982406095781
  0.0000334820739897 -0.0001028134876268  0.0001197526252448
 -0.0000562021463415  0.0001154622097205  0.0000053278461812
 -0.0001572903514331  0.0000224504588214  0.0000316436269895
  0.0000321544283425  0.0000364168488517 -0.0000337504672245
 -0.0000761367505786 -0.0000080770284494 -0.0000541786092220
  0.0000596268698594 -0.0001913563368346 -0.0000589682691828
  0.0000647223215239  0.0000626241310308 -0.0000605510642692
 -0.0000397687135482  0.0001142132013530 -0.0001547891045042
  0.0000188146959587  0.0000702402107887  0.0001908998027417
  0.0001048822474631 -0.0000458375303543 -0.0000646792522699
 -0.0001027994901193  0.0000183565826598 -0.0000830608509881
 -0.0001868893373687 -0.0001176522812889 -0.0001000416222183
 -0.0000274125034716  0.0000713549866477  0.0002000997543173
  0.0000483348292683  0.0000326911430301 -0.0001200659540680
  0.0000857372462168  0.0001395282321524  0.0000070911014421
 -0.0001236579298558 -0.0000790891479437 -0.0001489589631476
  0.0001672759579847 -0.0000284181346626  0.0001015799124088
 -0.0001174067865409  0.0003231525611536  0.0002698181093110
 -0.0000575118105750  0.0002214254954602  0.0001603615481574
  0.0001476693978992 -0.0002124613480506  0.0001800976749154
  0.0002771721844401 -0.0000716273996795 -0.0000074964907958
  0.0000514505308884 -0.0000096871007299  0.0000594872536941
  0.0000146779658893 -0.0000327701751113  0.0000490268086167
  0.0000300804284137 -0.0001523032907246 -0.0000417990699662
 -0.0000761611564892  0.0000800869189959 -0.0000869876902261
 -0.0000684933936265  0.0000994296799003  0.0000408167320634
 -0.0000476579241588  0.0000636186718889  0.0001239737710522
 -0.0000872758953178  0.0002133701093110  0.0002584969969735
  0.0001745388698594  0.0000728624105394  0.0001413891828378
 -0.0000554114666192 -0.0000540425821613  0.0001836419156133
  0.0000177958209720  0.0000152636000712  0.0001079204244259
  0.0000918563104860 -0.0000661576044152 -0.0000064563683105
 -0.0002279056236425  0.0000092319663878 -0.0000017713917607
 -0.0000914202342888 -0.0000470492120349  0.0000479949410717
  0.0000702459533559  0.0000923982652662  0.0000769234822859
  0.0000104244463593  0.0001359111326331  0.0000636879416058
 -0.0001096553975432 -0.0000034695119530 -0.0001807063870393
 -0.0001852336834609  0.0001259919245149 -0.0000139296017091
 -0.0001668283966530  0.0000776190507388 -0.0000807243439558
  0.0002162220117500 -0.0000414566693965 -0.0001707742581449
 -0.0001145243767135 -0.0001146959359088  0.0000604297525369
 -0.0000346589054656 -0.0002599652996261 -0.0000490551625423
 -0.0000037127850454 -0.0001483373302475 -0.0001422523624711
 -0.0001687259562044  0.0000942714189069  0.0000238785276126
  0.0000485508933594 -0.0000031992523838 -0.0000906252476411
  0.0002052612455047  0.0001403662880541 -0.0003599441125156
 -0.0001017464468578 -0.0000026327050596  0.0001324282656222
 -0.0000756245853659 -0.0000053528981307 -0.0000362334456115
 -0.0000390135659605 -0.0000209908776927  0.0000406674253160
 -0.0000424580295531 -0.0000935378059462 -0.0001562466398433
 -0.0001344266790101  0.0000310945657824 -0.0000031038898772
 -0.0000999073897098 -0.0000963577653552  0.0000048959692362
  0.0001512581434930  0.0001506713249065  0.0001819600612427
  0.0000830726950329  0.0001209075990742  0.0000172413043262
  0.0001781925782446  0.0000057172999110  0.0001046342403418
 -0.0000205456492790 -0.0000579066120705 -0.0000536854662631
 -0.0001329576585366  0.0000635285853659  0.0000578703621150
  0.0000598113498309 -0.0001978023685241  0.0002198161410005
  0.0001022478447570  0.0000553055880363 -0.0002987104005697
 -0.0000174096333274  0.0001411928588214 -0.0000053715973651
 -0.0001052917642870 -0.0000212074083675 -0.0000784359309240
  0.0000712918184084  0.0000426098486737  0.0001851701563112
 -0.0001882618109311  0.0001130697126580 -0.0000425692917928
  0.0001505037137262  0.0001702480954246  0.0001719805561688
 -0.0000435875207406  0.0000709429574506 -0.0000457833348763
  0.0000979236916503 -0.0000850169129429  0.0000599247655332
 -0.0000086353495460  0.0000727999601211  0.0000431162713192
 -0.0001578818358554 -0.0000207653024746  0.0001315306305857
  0.0000137777466975 -0.0000827317301050  0.0001026889457006
 -0.0000327214709631 -0.0000118440807549 -0.0000775085063201
 -0.0001225438718177 -0.0000891759672423 -0.0000418252704291
  0.0000940499711590 -0.0001673394851344 -0.0000393448403062
 -0.0000656256991276 -0.0000329878901905 -0.0000690116603169
 -0.0001065271340573  0.0000189386995193  0.0001305683916682
 -0.0001182462780844 -0.0000238036230016 -0.0000535996866655
  0.0001794171807014  0.0000485939626135 -0.0000066544509881
  0.0001617386875556  0.0000502424383123 -0.0000470599793484
  0.0001038514566495 -0.0000188951636817  0.0000145015255118
 -0.0001987136421577  0.0001346570995193  0.0000918121645006
 -0.0000438186590707 -0.0000156763111981 -0.0000557865280399
 -0.0000107636526260 -0.0000240985038277  0.0001351089677764
  0.0000491186896920  0.0001015820658715  0.0001266688296244
  0.0001779833334520  0.0000198856488517  0.0001060268128894
 -0.0000134914438312  0.0001812045547445  0.0000640353669218
 -0.0000550554274524 -0.0001630314829980  0.0000264608883034
 -0.0001344489314581  0.0000018101612676 -0.0002012863122663
  0.0000733752935731 -0.0000034837858216  0.0001225370525191
  0.0000436718646965  0.0000793970931102  0.0001754924949261
 -0.0000047160474275  0.0000311999418907  0.0001170116261349
  0.0001433883140466 -0.0000914202342888 -0.0000662161068186
 -0.0000468180737048  0.0001610100993413  0.0002333445526082
 -0.0000338674720313 -0.0000461928517002 -0.0000979933202777
 -0.0002835493053231 -0.0000744089556703  0.0001101000875912
  0.0001959101926295  0.0000034862981948  0.0003122133295353
  0.0001548759608332 -0.0000567304625245  0.0000506027844045
 -0.0001121964835321 -0.0000409147146163 -0.0000818233277550
  0.0002829197763931 -0.0000825677080292  0.0000983694584298
 -0.0001471130867011 -0.0000074687111269 -0.0000772073804522
 -0.0000519899732954  0.0000319743270785 -0.0000601519558483
 -0.0000509631304967 -0.0000339987973651 -0.0000146186021008
 -0.0000435860850988 -0.0000463924059106  0.0000920325355172
  0.0000453709467687 -0.0000737133872174 -0.0001667641516824
 -0.0001177193975432 -0.0001227574235357  0.0001189493836568
  0.0001570046587146  0.0001236417788855 -0.0002352022730995
 -0.0001047189432081 -0.0001085793840128  0.0001470061313869
 -0.0001727270899056  0.0001130801210611 -0.0000332517611536
  0.0001099278105750 -0.0000374063649635 -0.0000373467858287
 -0.0000115226046644 -0.0000259610696101  0.0000379946191917
  0.0000513658280221 -0.0000573689642158 -0.0000662968616699
  0.0000786835791348 -0.0001713714851344  0.0000502295175361
 -0.0001332785244793  0.0000872155983621  0.0000644811337013
  0.0001718682171978  0.0000537375082784 -0.0000290365732597
 -0.0000213714663343  0.0000148945324550 -0.0001118985878583
  0.0000013681702261  0.0000756970852768  0.0001572795841196
 -0.0002450644144561 -0.0000492069816628 -0.0000846260594623
 -0.0000466012917928 -0.0000805344803276  0.0000554365903507
 -0.0000182803859712 -0.0000299527998576  0.0001529277949083
  0.0001472760320456  0.0001537367790636  0.0001692869332384
  0.0001170094726722  0.0000566654997330  0.0001279634196190
 -0.0001064187431013 -0.0000771492369592  0.0002001026256009
  0.0000384698166281 -0.0001081867359801  0.0000191785234823
 -0.0001800086651237 -0.0000822367925939 -0.0000399941093110
 -0.0001410801609400  0.0002585619597650 -0.0000905215225209
  0.0001343491543529 -0.0000630975339149  0.0000175786083675
  0.0001732744283425 -0.0000377527135482  0.0000487662396297
 -0.0002141299227346 -0.0000664939035072  0.0000528445390778
 -0.0000077285981841  0.0000457255502938 -0.0001226784632366
  0.0001639553184974 -0.0002710229716931 -0.0001785784069788
  0.0000921269289656  0.0000823214954602  0.0002475416143849
 -0.0001439973850810 -0.0000711705066762 -0.0000641049955492
  0.0000355784699306  0.0000798798276660 -0.0002124739099163
  0.0001058789417839  0.0001129921880007  0.0001179081844401
  0.0000243693376536 -0.0002076584084031  0.0000039070632722
 -0.0000914378209008  0.0000188940151682  0.0001396003731529
 -0.0000274313821613 -0.0000678692483532 -0.0002199887769272
  0.0000587705095247 -0.0001794318960299 -0.0000816521274702
 -0.0000579999287876  0.0000239023592665  0.0000455058970981
 -0.0000009504774221  0.0000994142467509  0.0000274033512551
 -0.0001188790372085 -0.0000110041944098  0.0000127583692362
  0.0000656271347694 -0.0000526184254940 -0.0001030568289122
  0.0000613460509169  0.0000649559722272 -0.0000413145408581
  0.0000929951333452 -0.0000183600640912  0.0000466468734200
 -0.0001334974598540 -0.0000619827580559 -0.0001192709674203
 -0.0001723552586790  0.0000630103186754  0.0000174143709453
  0.0002872529022610  0.0001358989296778 -0.0000404208538366
  0.0001160651792772 -0.0001426202456827  0.0001150900195834
  0.0000910362001068  0.0000127731204558  0.0000856188057682
 -0.0000391919444543  0.0000748737447036 -0.0000449438433327
 -0.0000980083945166  0.0000085764164501 -0.0000573334320812
  0.0000856507487983  0.0001277703257967  0.0000172486978814
  0.0000563898565070 -0.0000706565469112  0.0000908409528218
 -0.0002132096763397  0.0000658582730995 -0.0000373134071568
  0.0001318855930212 -0.0000640088075485  0.0000428912344668
  0.0000068549024746  0.0000871793484066  0.0000882331094891
 -0.0000412079444543  0.0001336632764821 -0.0000947620494926
 -0.0000269374854905 -0.0000169096710700  0.0002989752764821
 -0.0000304809724764 -0.0001542012091864  0.0001541315805590
 -0.0001682231226633 -0.0001257772960655 -0.0001334271134057
 -0.0000683114260281 -0.0000621719038633 -0.0001219803824105
 -0.0000285817260459 -0.0000369401402884 -0.0000314370740253
 -0.0000391154965284 -0.0001050462695389  0.0000103197162898
 -0.0000420162107887  0.0000972758582873 -0.0001190398290903
  0.0000002792043354  0.0000522110621328  0.0001834014456115
  0.0000243087535695  0.0000923106911163 -0.0000662254384903
  0.0003894178387039 -0.0000752287071390 -0.0000776972932170
 -0.0000493408552608 -0.0003579446223963  0.0000268218804344
  0.0000101540432259 -0.0000887596311198 -0.0000528108014955
 -0.0001313443560620 -0.0000178543951576 -0.0000017899258964
 -0.0001049500815382 -0.0000388829225565  0.0000294385529642
  0.0000555557486203 -0.0001790302752359 -0.0001053473954068
  0.0001661141648567 -0.0001540831276482 -0.0001133970389888
  0.0000418385501157  0.0000874269966174  0.0001974003888197
  0.0001421310507388 -0.0000726800840306 -0.0000977471077087
  0.0000216977518248 -0.0000670380117500  0.0001807293573082
 -0.0001650309731173  0.0001000724885170 -0.0001356972220046
 -0.0001304808175182  0.0000750969870037  0.0002908897418551
  0.0000373205853659  0.0001117758404842 -0.0000167456131031
 -0.0001118666448282 -0.0000550870115720  0.0000747143884636
 -0.0001719328210789 -0.0001886113897098  0.0000820113968310
  0.0000720222011750  0.0001435498237493  0.0001383843845469
  0.0000236064376001 -0.0000296555143315  0.0000667347324194
 -0.0000492963503650 -0.0000697133302475 -0.0000747994502403
 -0.0001481381349475  0.0000585232202243  0.0000489123161830
 -0.0001056847712302 -0.0001313221036140 -0.0000246697457006
 -0.0001645625949795 -0.0001717863856151 -0.0000986594580737
  0.0001585418721738 -0.0001978597941962  0.0001636750094356
  0.0000580135673847  0.0001156725312444  0.0000664005867901
 -0.0000358645215596  0.0001599706946769  0.0001606020181592
 -0.0001642370632010  0.0000395573152929  0.0000577095702332
  0.0001286830350721 -0.0000892254968845  0.0002669421598718
  0.0000341608454335 -0.0000590698408403 -0.0001446531144739
  0.0000413608403062  0.0001838662346448  0.0001536050589283
  0.0000302247463059 -0.0000944487206694  0.0000447722841374
 -0.0001784761175004 -0.0002171386690404  0.0001081551518604
  0.0000592256079758 -0.0000692729471248 -0.0002558582873420
  0.0000712946896920  0.0001351832622396 -0.0001431744034182
 -0.0000564347203133  0.0002471726544419 -0.0001166555869681
  0.0000949587324194 -0.0002011039857575  0.0001343107509347
  0.0000301965718355  0.0002332889214883  0.0000766026163432
 -0.0000232765271141 -0.0001334669524657 -0.0000685676880897
 -0.0000221573007655  0.0002628922143493 -0.0000362248317607
 -0.0000970920961367  0.0001024822132811  0.0002025999245149
 -0.0000394374392024 -0.0000771481602279 -0.0001365855253694
 -0.0000943844756988 -0.0000431815930212  0.0000728376457184
  0.0002861808367456 -0.0001414627594801  0.0000934089570945
  0.0000726782894784  0.0000517512978458  0.0001637493038989
  0.0000983080847427  0.0001772619234467 -0.0000338952517002
  0.0001616913113762 -0.0000386657817340  0.0001451103663878
  0.0000282479752181 -0.0001687270329357  0.0001785213402172
 -0.0000525588463593  0.0001270690147766  0.0001529439458786
 -0.0000126387802742  0.0002822561509703  0.0000659167755029
 -0.0000268246799359  0.0001810584781912  0.0000697007683817
 -0.0002196036660139  0.0000258146700374  0.0001620918554388
  0.0002336532155955 -0.0002102436403774 -0.0000441578294463
  0.0002817073768916  0.0001826839836212  0.0001202917087413
  0.0001941468655866 -0.0001190807448816 -0.0000656903030087
  0.0001570523938045  0.0000254369167883  0.0001231594032402
  0.0001051266654798  0.0001302981320990 -0.0000251993180701
  0.0001344772853837  0.0000218269595870 -0.0000517337112338
  0.0000223423191027  0.0000138743294997 -0.0000727253067474
 -0.0000950351803454  0.0000498939362649  0.0000143978003917
 -0.0002482949674203 -0.0002653141420687  0.0001887603375467
 -0.0002514508670109  0.0001425373373687  0.0003891845469112
 -0.0001419293430657  0.0002379353761795 -0.0000667724180167
 -0.0000146801911341 -0.0000895750756632 -0.0001192128239274
 -0.0000759931863984 -0.0001146356389532 -0.0000332142550116
  0.0000367082841374  0.0001663589417839 -0.0000595238625601
  0.0000681488395941 -0.0001271074181948  0.0000010099524729
  0.0000769195342710  0.0000783885547445 -0.0000462743243724
  0.0000087284150258 -0.0000705129827310 -0.0000810868435108
 -0.0000275871134057  0.0000603974505964 -0.0000938913327399
  0.0000078923690226  0.0001020185009792  0.0001206136514153
 -0.0000019179815560  0.0000065101689870 -0.0000616719416058
  0.0002499599529998 -0.0000288139411074 -0.0000454201175004
  0.0000180856770518 -0.0000924840448638 -0.0000548960712124
 -0.0000887197920598 -0.0000383764999110  0.0000713302218266
 -0.0000520861612961 -0.0000953836823927 -0.0001270600420153
 -0.0001363242385615 -0.0000282224207940 -0.0000366016877337
  0.0000226238484600  0.0000304721073883 -0.0000828885739719
  0.0001567857233399  0.0001241973722628 -0.0002087577511127
 -0.0000149452465017 -0.0000804451116254  0.0001609113989674
  0.0002224455189603 -0.0001486517358020 -0.0000177017864340
  0.0002265177169307  0.0000408443681681  0.0000051723661741
 -0.0001054145116610  0.0001777238411964 -0.0000122128971337
  0.0002234361118035  0.0000599703471604  0.0001919682791526
  0.0001789513149368  0.0000254431618302 -0.0000745568267759
 -0.0000591836154531  0.0001959503906000 -0.0000259319978636
 -0.0000294022671177  0.0000556128153819  0.0000606974997330
 -0.0002086184938579  0.0000046332108955  0.0001215679943030
  0.0000157530103614 -0.0000528265935553  0.0001733472871640
  0.0002225262738116  0.0001178769592309  0.0001275334448994
  0.0002082742987360  0.0002184512045576  0.0001858535218088
 -0.0003495565262596  0.0002644165070322 -0.0000996626127826
 -0.0001098983799181 -0.0001241589688446  0.0001981401032580
 -0.0000621381662809  0.0001775641260459  0.0000272316126046
  0.0000755750557237 -0.0000042136445790  0.0001057321474096
 -0.0000941931764287  0.0002615179462346  0.0000212020964928
  0.0001460690162008  0.0000859845355172 -0.0000016431351113
  0.0000611759273634 -0.0000633347737226 -0.0000185684116076
  0.0000007273930425 -0.0000555514416949 -0.0000763474310130
 -0.0001676718362115  0.0001366436688624  0.0001131142175539
 -0.0002065360954246  0.0001674432102546 -0.0000612904197970
 -0.0001349869382233 -0.0000268571972227  0.0000041271471604
  0.0000706185024034 -0.0000485494577176  0.0001114011379740
 -0.0000856256250668  0.0000586305344490  0.0000456799686665
  0.0000968053266868 -0.0000280842402706 -0.0000020100600320
 -0.0000853029645718  0.0000385771308528  0.0000134742161296
  0.0000781218842799  0.0000409412739897  0.0002159474452555
  0.0000972335068542 -0.0001682719344846 -0.0000388326750935
 -0.0000358316453623  0.0001524432658002  0.0000624245768204
  0.0001449334235357 -0.0001435458757344 -0.0001401294071568
 -0.0000084955898166 -0.0001444991418907  0.0000573398924693
  0.0000192523872530 -0.0002107012512017  0.0002540310742389
 -0.0000004852289834  0.0000403106683283  0.0002261318881965
 -0.0001914783663878  0.0000834305287520 -0.0000240597056080
  0.0001150954032402  0.0000776743229482  0.0000381518219690
 -0.0001070895467331  0.0001649843147588  0.0001603141719779
 -0.0001301954837102 -0.0000416005924871 -0.0000585752622396
  0.0000015829494178  0.0000215735329179  0.0001056915905288
  0.0000137751266512 -0.0001422943549938  0.0000824984383123
 -0.0001408536884458 -0.0000794024767670 -0.0000214890812889
 -0.0000168695807727 -0.0001432070642692  0.0000449488680790
 -0.0000374092362471  0.0000304219675984  0.0000467782346448
  0.0001141180900837 -0.0002091575773545  0.0001310191831939
  0.0002591706718889 -0.0000372933081716 -0.0000528929919886
 -0.0002520344554032 -0.0000423783514331  0.0000093258573616
  0.0000629302816450  0.0001438032145273 -0.0000927069282535
  0.0000316088844579 -0.0000901740972049  0.0001347626191917
  0.0001504753598006  0.0000404883290012 -0.0000075681293217
  0.0000605374256721 -0.0002766413558839 -0.0001001331443831
  0.0000204443288588 -0.0000960089043974 -0.0000925730546555
 -0.0001341585729037  0.0000197683210255 -0.0000707222275236
 -0.0000557588919352  0.0000338237208474  0.0001798378237493
  0.0001133327940182 -0.0000976207712302 -0.0002360309973295
  0.0001598429225565  0.0000511712985579  0.0001453677051807
 -0.0003285778515222 -0.0000898227238740 -0.0000533369642158
  0.0000395573152929 -0.0000193179601923 -0.0000958003774257
  0.0000939153797401  0.0001989462161296  0.0000829011358376
  0.0000267454325085 -0.0000947412326865 -0.0001537428805412
  0.0000114730750223  0.0000233087572726 -0.0000971714153463
  0.0001298419569165 -0.0001150512572548  0.0001796160170910
 -0.0001534812348229  0.0000038040559729  0.0001641225707673
 -0.0002915587509347 -0.0000378047555635  0.0000390645312444
  0.0000728082150614  0.0000895108306925 -0.0000652064917216
 -0.0000229419149012 -0.0001042006765177 -0.0001013846651237
 -0.0001385379982197  0.0000137258841374 -0.0000351751981485
 -0.0001007612376714 -0.0001125693914901 -0.0000438244016379
  0.0000959385579491 -0.0000657254762329  0.0000339848716397
  0.0000758420850988 -0.0000058868492078  0.0000470944347516
 -0.0000225879215239 -0.0000748701555991  0.0001668829510415
  0.0000801170674737 -0.0001149346113584 -0.0001170241880007
 -0.0000896892091864 -0.0000026128070643 -0.0000773660188713
  0.0000048231463059 -0.0001529529186398  0.0000382616485669
 -0.0001126706042371  0.0003300192358910  0.0000552384717821
  0.0001408597899234 -0.0000855922463949  0.0002486994594980
  0.0001530006537297  0.0000468772939291  0.0000291691906712
  0.0000671062047356  0.0001114276973473  0.0000923085376536
  0.0000977801274702  0.0000086931700196  0.0000125570563646
  0.0001285380352501 -0.0000215880329001 -0.0000119419556347
  0.0000499355698772 -0.0000808890838526 -0.0001056539049315
 -0.0002379364529108  0.0000450633605127  0.0000447331628983
 -0.0001452266533737  0.0000971778757344 -0.0001467767876090
 -0.0000209092255652  0.0001957465294641  0.0000296944920064
 -0.0001131587224497 -0.0002082681972583 -0.0000104875428165
  0.0000115103658181  0.0000150528478547  0.0000039903663878
  0.0000384245939113 -0.0000271283899591  0.0000626768908670
 -0.0002396358938935  0.0000983655104148 -0.0001754138935375
 -0.0003165834231796 -0.0000258376761973 -0.0000040403267224
 -0.0002870551426028 -0.0001592654356418 -0.0000454079145451
  0.0000172714886950 -0.0000221809888553 -0.0001666640156667
 -0.0001019086743813 -0.0001686753498309  0.0000342082933951
 -0.0002705452618836  0.0002126906918284  0.0003980424568275
  0.0001232566679722 -0.0000226729474096  0.0000221321052519
 -0.0000853934100053  0.0001221770653374  0.0000373564764109
  0.0001308716709988  0.0000161658650525  0.0002023095659605
  0.0000130438107175  0.0001593289627915 -0.0000628509624355
 -0.0001491154481040 -0.0000453619740075  0.0000698116717109
  0.0001581607092754  0.0000947710222539  0.0001824704319032
  0.0000767167498665 -0.0000410790956026  0.0000148168642336
 -0.0002163587566317 -0.0002214064732063 -0.0000290595435286
 -0.0000674880854549 -0.0000287396466441  0.0000806195421043
  0.0000860986690404 -0.0000416917557415  0.0001312004329713
 -0.0000123077212747  0.0000432314815738 -0.0001811464112516
 -0.0000389809051095 -0.0000708248759124  0.0000424393662097
 -0.0000279812688624  0.0001810545301763  0.0001449883368346
  0.0000620096763397  0.0000390128481396 -0.0000245177830158
  0.0000821639337725 -0.0001051790664056  0.0000889179106284
  0.0000056258136372  0.0003565987082072 -0.0000915110386327
  0.0000112797658537  0.0000530523482286  0.0001603138130675
 -0.0000642747601923  0.0000502331066406 -0.0000211111126936
  0.0001439098109311  0.0001257589916325  0.0001504584910094
  0.0001174767740787 -0.0001383140380986 -0.0001133561231974
  0.0002054324457896 -0.0000173244997686 -0.0000122840690760
  0.0001033281652127 -0.0000963904262062 -0.0000050121844401
 -0.0001244123596226 -0.0000457032978458  0.0000880367854727
  0.0000114553448460 -0.0001590317849386  0.0001218910137084
  0.0000682023172512  0.0001774198440449 -0.0000261022649813
  0.0000397633298914 -0.0000665394851344  0.0001256703407513
 -0.0000310139903863 -0.0001606167334876  0.0001898108684351
  0.0000012776745451 -0.0001010946654798  0.0002237774356418
  0.0000032500346235 -0.0000163954241766  0.0001960681132277
  0.0003531115342710  0.0001453813437778 -0.0000437368274880
 -0.0000097360920064  0.0001829244536229 -0.0001581603503650
 -0.0000660215773545 -0.0000643368517002 -0.0000649243881075
  0.0001532655296422  0.0000511820658715 -0.0000862838668328
  0.0001419358034538  0.0001764780630230 -0.0000814547267224
 -0.0001259696720669  0.0001387361167883 -0.0000950972718533
 -0.0001420563973651  0.0001091583065693 -0.0001829215823393
 -0.0002396681958341 -0.0000843741043262 -0.0000148413060353
 -0.0000049279481574 -0.0000334320418729  0.0000966341264020
  0.0000890743955848 -0.0000325539315649 -0.0000337702790814
  0.0001410665223429 -0.0001743048602457 -0.0000686121929856
  0.0001658564671533 -0.0000567717372263  0.0001198315855439
  0.0001812102973117 -0.0000009550212284  0.0000561597949083
  0.0001586499042193  0.0000204161184974 -0.0001807559166815
 -0.0000753747836924  0.0001137301078868  0.0000575225778886
 -0.0000664515520741  0.0001150566409115 -0.0001326181292505
  0.0000386245070322 -0.0001436811849742  0.0000350506562222
  0.0000533437835143  0.0000278673147944  0.0000153094688268
  0.0000503199629696  0.0000589083311376 -0.0000586872423002
 -0.0001161161445612 -0.0001908893943386 -0.0000232661546021
 -0.0002236514580737  0.0000558145230550  0.0002269548698594
 -0.0000690489870037  0.0000508673014064  0.0001300590977390
  0.0000758018871284  0.0002139967669575  0.0000652811450952
 -0.0000057560981307 -0.0001384023300694 -0.0000212574045932
  0.0000217071193876  0.0000120386820011  0.0000688479971515
 -0.0003002953491187 -0.0003222918938935  0.0000037542392024
 -0.0000480814384903 -0.0001723186498131  0.0000573675285740
 -0.0000105619808439  0.0000013353478654 -0.0002124258159160
 -0.0000095335229482 -0.0000193101718355 -0.0000911930439737
 -0.0001263540651593  0.0001173841751825 -0.0000309885436354
 -0.0001021792928610 -0.0001223077087413  0.0000485228983443
 -0.0000243129169307 -0.0000203963784226  0.0000259023877515
 -0.0000669870464661 -0.0001515014847784  0.0000742847726544
  0.0000408059647499  0.0000607204700018  0.0000255937606552
 -0.0000264731271497 -0.0001081497682037 -0.0000770717123019
 -0.0000440070870571  0.0001333549724052  0.0001188273541036
 -0.0000917202834253  0.0001194504226455 -0.0001193061406445
  0.0000059791968667 -0.0001340742289478  0.0001669622702510
  0.0000550292269895  0.0000346098424070  0.0000917253081716
 -0.0000108759915969 -0.0000645015915969 -0.0000538595378316
 -0.0000303657622218  0.0000822105921310 -0.0000603791461634
  0.0001052601801673  0.0000630584126758 -0.0001163767135482
 -0.0002061944126758  0.0000346586542282 -0.0000491481203489
  0.0003440142310842 -0.0001742521004095 -0.0000272681855795
 -0.0001286600648033  0.0001774266633434 -0.0001248828912231
 -0.0000649240291971  0.0001276342987360  0.0003271124201531
  0.0001256419868257  0.0001331590072993  0.0000698080826064
 -0.0000454233476945 -0.0000271441102368 -0.0000119777031155
  0.0000195558460388  0.0001068279010148 -0.0000297056541214
  0.0000171461930568  0.0001399355955136 -0.0001268504383123
  0.0000855811201709 -0.0000656648203667 -0.0000920547879651
 -0.0000009518520491 -0.0001230754181948 -0.0000276530811465
 -0.0001478524422289 -0.0001584044094712  0.0001624866569343
  0.0000315185466975 -0.0001288237279687  0.0000706511632544
  0.0001798729969735 -0.0000665082599252  0.0002012877479081
 -0.0000697061520385 -0.0000003474152665  0.0000896113256187
 -0.0001425240576820 -0.0000547891158982 -0.0000268169633612
  0.0001509193320278  0.0000997114246039 -0.0001582665878583
  0.0000473112166637  0.0000864102033114  0.0002640069902083
 -0.0000979954737404  0.0000732934619904 -0.0000411210881253
 -0.0001899605340929  0.0000330898566495  0.0000746745494036
 -0.0000569142246751 -0.0000936856770518  0.0000822041317429
  0.0000650334968845 -0.0000448035093466  0.0002194331835499
  0.0000107437330960  0.0000680131714438  0.0001563571842621
  0.0000919180430835 -0.0000497812383835 -0.0000793608431547
 -0.0001207905942674  0.0000981239636817 -0.0000491283802742
  0.0000462596090440 -0.0001283643225921  0.0000442371486559
 -0.0001142009983977  0.0002052465301763 -0.0000976893231262
 -0.0000569124301228  0.0000860649314581  0.0001090194082250
  0.0001231271012996  0.0001708065600855  0.0000568977147944
  0.0000945266042371 -0.0001847599216664 -0.0000021343686665
  0.0000251108825352 -0.0001196578728859 -0.0001649889805946
 -0.0000216139462346 -0.0000243134194054  0.0000359391390422
  0.0000623660744169 -0.0000400199508635  0.0000549990785117
  0.0000941335972939 -0.0000915096029909  0.0000461497824461
 -0.0000607114972405  0.0000125180427986 -0.0000764518739541
  0.0000215525007655 -0.0000902516218622  0.0002122506676162
  0.0001359100559017 -0.0000126531366922 -0.0000466106234645
 -0.0000184431877515  0.0000463841509703  0.0001580598554388
  0.0001162568374577 -0.0000271834109311 -0.0001725246644116
 -0.0000437576442941  0.0002181192123910 -0.0000307677419263
  0.0000205580675806 -0.0000901884536229 -0.0001850373594445
 -0.0000211024270607 -0.0001269954381342 -0.0000483944084031
 -0.0001274979127648 -0.0001311559280755  0.0001083823421755
  0.0001526517927719 -0.0000623481288944  0.0000001531557030
  0.0000331485743991  0.0000120569146519  0.0000274473177853
 -0.0000779018721738 -0.0002066534591419 -0.0000417721516824
  0.0000537701691294  0.0000926283268649  0.0000237917789567
  0.0000833311105572 -0.0000889498536585  0.0000526862595692
  0.0000717429688446 -0.0000283060828200  0.0000268075240164
  0.0000887233811643 -0.0002359050197614 -0.0000055263236603
 -0.0000222421471960  0.0000594021919174 -0.0000301874555101
  0.0000999497411430 -0.0003117754587858 -0.0000305427768560
  0.0000458317877871  0.0000214933164323 -0.0000152560629518
 -0.0000109703132633  0.0000714357414990 -0.0000418704931458
  0.0000367606850632  0.0000143078933238  0.0000609110514510
  0.0000068552254940 -0.0001181709068898 -0.0000670839522877
 -0.0001520394915435  0.0001004751860424  0.0001683605853659
 -0.0002132139832651 -0.0000531542787965 -0.0000379045326687
 -0.0001544840306213 -0.0000467541876447  0.0001884251151860
  0.0000162006434752  0.0000850958732419  0.0000690436033470
  0.0000107817058216 -0.0001224336863094  0.0001486111789211
  0.0000424486978814 -0.0000004188484956 -0.0000326364809685
  0.0000264441271853  0.0000211436299804  0.0000881039017269
  0.0000675167982909 -0.0000804824383123 -0.0000984243717287
  0.0000786825024034  0.0001029796631654  0.0001284497432793
 -0.0000185988831049 -0.0000736078675450  0.0000217100983443
  0.0001430006907602  0.0000805258664768  0.0000894325882143
 -0.0000083047571301 -0.0000774503628271  0.0001097332811109
  0.0000678663770696 -0.0000902089115186 -0.0000118974148478
 -0.0000044665687734  0.0000017048066940 -0.0001242138821435
 -0.0000431288331850 -0.0000194009402884  0.0000532030906178
 -0.0000374573302475  0.0001205655574150  0.0001692679109845
 -0.0000242182004629  0.0001301732312622  0.0002669199074239
  0.0001143732754139  0.0000305081778886  0.0000313468798291
 -0.0000562872081182 -0.0000454172462168 -0.0000707315591953
 -0.0001199004963504 -0.0000363587053587 -0.0000393376620972
  0.0002396043097739  0.0000461099433861  0.0002017083909560
 -0.0000922830550116 -0.0000931788954958 -0.0002452079786363
  0.0000846781014777  0.0000919801345914 -0.0001658780017803
  0.0000547647099875 -0.0000023680732063  0.0001613632672245
  0.0001398717094534  0.0002628419668862 -0.0000362402649101
  0.0000713671896030 -0.0000932682641980 -0.0000295315466619
  0.0000973523062133 -0.0001885776521275 -0.0000512344667972
 -0.0000031982617910 -0.0000234673598006  0.0000131712957095
 -0.0000697639366210 -0.0000599010774435 -0.0000407524870928
 -0.0000556558846359 -0.0000269326401994  0.0000269141563112
 -0.0000630519522877 -0.0000253187993591 -0.0000398196788321
  0.0000261019060709  0.0000212436224319 -0.0000792262517358
  0.0000429124101834  0.0000674019469468 -0.0000795144568275
  0.0000658335082784  0.0001167492625957 -0.0002030736863094
  0.0000234822186933 -0.0000375739761438 -0.0000714414840662
 -0.0000122385233399 -0.0000273217350187 -0.0000152124553320
  0.0000537981641446  0.0000590493829446 -0.0001939239821969
  0.0001124929435642  0.0000356973051807  0.0000471400163788
  0.0001377893110201 -0.0001481646943208 -0.0000365561061065
  0.0000000558496963  0.0000469365141535 -0.0000918907658893
 -0.0001235897368702 -0.0000967672821791 -0.0001771664532669
 -0.0000528779177497 -0.0000352178008189  0.0001736832273456
  0.0001097932191561 -0.0000863222702510 -0.0000460851785651
  0.0001617559152573  0.0001361946718889  0.0000659214413388
  0.0000740740922200 -0.0001434198981663 -0.0000352732165925
  0.0002219602720313 -0.0001541441424248 -0.0002022352714972
  0.0002503353733310  0.0000171978043796 -0.0001523043674559
  0.0002230703820545 -0.0000118745163610  0.0000502858664768
  0.0000604010397009 -0.0000047573939113 -0.0001017819789923
  0.0000803546661919  0.0000228424608154  0.0001811862503116
 -0.0000007355151860 -0.0001274810439737 -0.0002278815766423
 -0.0000857261199929  0.0001443692163076 -0.0000359416514153
  0.0000122171322770 -0.0000459272579669 -0.0001262388549048
 -0.0001136023357664 -0.0000341493602991  0.0000924538963860
 -0.0000987280099697 -0.0000258872058394  0.0000830195762863
 -0.0001081138771586  0.0000006149176856  0.0000555399565604
 -0.0000031680558875 -0.0000611798753783 -0.0001341205283959
 -0.0000997946918284 -0.0001082527755029  0.0001554660096137
 -0.0001826821890689  0.0000597094192630  0.0001020953078156
 -0.0000758108598896  0.0000314106582161 -0.0001420538849920
  0.0000640005526082 -0.0001974197699840  0.0000440824582517
  0.0000752692640199  0.0001308092205804 -0.0000131949120171
 -0.0000424655666726  0.0000973264646609  0.0000384145444187
 -0.0001222298251736 -0.0000015132418302 -0.0000285074315827
  0.0000225082075129  0.0000370115634680 -0.0000225748212925
  0.0000790755093466  0.0002240473363005  0.0001115091700196
  0.0000596993697703  0.0001190340865231  0.0000248884657290
 -0.0000235844363895  0.0000758977162186  0.0000526891308528
 -0.0000366210688980  0.0002030241566673 -0.0002375696464305
  0.0000002512251123  0.0002253397728325  0.0001251355641802
  0.0002714601246217  0.0000368970710344  0.0000845575075663
  0.0000896106077978  0.0000407467445255  0.0001958168759124
  0.0001654347473740 -0.0001064381242656 -0.0000618165825174
  0.0000869623097190  0.0000917108657565  0.0002108860658731
  0.0002686075784940  0.0001053032604876  0.0001689733683008
  0.0000809428764469  0.0000703498281379  0.0002915693362877
  0.0000704060377034 -0.0000956830083841  0.0001942446278492
 -0.0000698384313068  0.0001937937489817  0.0001713029091164
 -0.0002195429401297  0.0000052479194126  0.0000014513890941
 -0.0001555461956258  0.0000330538295832  0.0004591139195549
  0.0001903169719365  0.0003238312221888 -0.0004505983206769
  0.0002188345593311 -0.0002876396764689  0.0002630056590533
 -0.0001438163313988  0.0004540079668684  0.0002445647133714
 -0.0001469023467588  0.0001408044605637  0.0002526374490062
 -0.0003256557786728  0.0001455877843717  0.0002764147965735
  0.0004701464244668 -0.0003908358297156  0.0001306256196410
 -0.0001224927668239  0.0001883962279608  0.0002215799106579
 -0.0001815458750335 -0.0001587083594167  0.0000507007274817
  0.0004435115068324  0.0001063082193857 -0.0002028093224262
 -0.0000291469140984  0.0000250783835884 -0.0002199337018149
  0.0000812572893106  0.0000521943388768  0.0000952281217045
  0.0002259684649685 -0.0000977972294916  0.0000685514226283
  0.0000227390236331 -0.0005389004419996 -0.0002576101419385
  0.0002425888619786 -0.0000920116520588  0.0000488756700212
  0.0000946764463612 -0.0001279624284635 -0.0000393562143935
