Si
 1.0000000000000000
    21.7199999999999989    0.0000000000000000    0.0000000000000000
     0.0000000000000000   21.7199999999999989    0.0000000000000000
     0.0000000000000000    0.0000000000000000   55.4399999999999977
 Si 
 1056
Cartesian
  0.0000000000000000  0.0000000000000000  0.0000000000000000
  0.0000000000000000  2.7149999999999999  2.7149999999999999
  2.7149999999999999  0.0000000000000000  2.7149999999999999
  2.7149999999999999  2.7149999999999999  0.0000000000000000
  1.3574999999999999  1.3574999999999999  1.3574999999999999
  1.3574999999999999  4.0724999999999998  4.0724999999999998
  4.0724999999999998  1.3574999999999999  4.0724999999999998
  4.0724999999999998  4.0724999999999998  1.3574999999999999
  5.4299999999999997  0.0000000000000000  0.0000000000000000
  5.4299999999999997  2.7149999999999999  2.7149999999999999
  8.1449999999999996  0.0000000000000000  2.7149999999999999
  8.1449999999999996  2.7149999999999999  0.0000000000000000
  6.7874999999999996  1.3574999999999999  1.3574999999999999
  6.7874999999999996  4.0724999999999998  4.0724999999999998
  9.5024999999999995  1.3574999999999999  4.0724999999999998
  9.5024999999999995  4.0724999999999998  1.3574999999999999
 10.8599999999999994  0.0000000000000000  0.0000000000000000
 10.8599999999999994  2.7149999999999999  2.7149999999999999
 13.5749999999999993  0.0000000000000000  2.7149999999999999
 13.5749999999999993  2.7149999999999999  0.0000000000000000
 12.2174999999999994  1.3574999999999999  1.3574999999999999
 12.2174999999999994  4.0724999999999998  4.0724999999999998
 14.9324999999999992  1.3574999999999999  4.0724999999999998
 14.9324999999999992  4.0724999999999998  1.3574999999999999
 16.2899999999999991  0.0000000000000000  0.0000000000000000
 16.2899999999999991  2.7149999999999999  2.7149999999999999
 19.0049999999999990  0.0000000000000000  2.7149999999999999
 19.0049999999999990  2.7149999999999999  0.0000000000000000
 17.6475000000000009  1.3574999999999999  1.3574999999999999
 17.6475000000000009  4.0724999999999998  4.0724999999999998
 20.3625000000000007  1.3574999999999999  4.0724999999999998
 20.3625000000000007  4.0724999999999998  1.3574999999999999
  0.0000000000000000  5.4299999999999997  0.0000000000000000
  0.0000000000000000  8.1449999999999996  2.7149999999999999
  2.7149999999999999  5.4299999999999997  2.7149999999999999
  2.7149999999999999  8.1449999999999996  0.0000000000000000
  1.3574999999999999  6.7874999999999996  1.3574999999999999
  1.3574999999999999  9.5024999999999995  4.0724999999999998
  4.0724999999999998  6.7874999999999996  4.0724999999999998
  4.0724999999999998  9.5024999999999995  1.3574999999999999
  5.4299999999999997  5.4299999999999997  0.0000000000000000
  5.4299999999999997  8.1449999999999996  2.7149999999999999
  8.1449999999999996  5.4299999999999997  2.7149999999999999
  8.1449999999999996  8.1449999999999996  0.0000000000000000
  6.7874999999999996  6.7874999999999996  1.3574999999999999
  6.7874999999999996  9.5024999999999995  4.0724999999999998
  9.5024999999999995  6.7874999999999996  4.0724999999999998
  9.5024999999999995  9.5024999999999995  1.3574999999999999
 10.8599999999999994  5.4299999999999997  0.0000000000000000
 10.8599999999999994  8.1449999999999996  2.7149999999999999
 13.5749999999999993  5.4299999999999997  2.7149999999999999
 13.5749999999999993  8.1449999999999996  0.0000000000000000
 12.2174999999999994  6.7874999999999996  1.3574999999999999
 12.2174999999999994  9.5024999999999995  4.0724999999999998
 14.9324999999999992  6.7874999999999996  4.0724999999999998
 14.9324999999999992  9.5024999999999995  1.3574999999999999
 16.2899999999999991  5.4299999999999997  0.0000000000000000
 16.2899999999999991  8.1449999999999996  2.7149999999999999
 19.0049999999999990  5.4299999999999997  2.7149999999999999
 19.0049999999999990  8.1449999999999996  0.0000000000000000
 17.6475000000000009  6.7874999999999996  1.3574999999999999
 17.6475000000000009  9.5024999999999995  4.0724999999999998
 20.3625000000000007  6.7874999999999996  4.0724999999999998
 20.3625000000000007  9.5024999999999995  1.3574999999999999
  0.0000000000000000 10.8599999999999994  0.0000000000000000
  0.0000000000000000 13.5749999999999993  2.7149999999999999
  2.7149999999999999 10.8599999999999994  2.7149999999999999
  2.7149999999999999 13.5749999999999993  0.0000000000000000
  1.3574999999999999 12.2174999999999994  1.3574999999999999
  1.3574999999999999 14.9324999999999992  4.0724999999999998
  4.0724999999999998 12.2174999999999994  4.0724999999999998
  4.0724999999999998 14.9324999999999992  1.3574999999999999
  5.4299999999999997 10.8599999999999994  0.0000000000000000
  5.4299999999999997 13.5749999999999993  2.7149999999999999
  8.1449999999999996 10.8599999999999994  2.7149999999999999
  8.1449999999999996 13.5749999999999993  0.0000000000000000
  6.7874999999999996 12.2174999999999994  1.3574999999999999
  6.7874999999999996 14.9324999999999992  4.0724999999999998
  9.5024999999999995 12.2174999999999994  4.0724999999999998
  9.5024999999999995 14.9324999999999992  1.3574999999999999
 10.8599999999999994 10.8599999999999994  0.0000000000000000
 10.8599999999999994 13.5749999999999993  2.7149999999999999
 13.5749999999999993 10.8599999999999994  2.7149999999999999
 13.5749999999999993 13.5749999999999993  0.0000000000000000
 12.2174999999999994 12.2174999999999994  1.3574999999999999
 12.2174999999999994 14.9324999999999992  4.0724999999999998
 14.9324999999999992 12.2174999999999994  4.0724999999999998
 14.9324999999999992 14.9324999999999992  1.3574999999999999
 16.2899999999999991 10.8599999999999994  0.0000000000000000
 16.2899999999999991 13.5749999999999993  2.7149999999999999
 19.0049999999999990 10.8599999999999994  2.7149999999999999
 19.0049999999999990 13.5749999999999993  0.0000000000000000
 17.6475000000000009 12.2174999999999994  1.3574999999999999
 17.6475000000000009 14.9324999999999992  4.0724999999999998
 20.3625000000000007 12.2174999999999994  4.0724999999999998
 20.3625000000000007 14.9324999999999992  1.3574999999999999
  0.0000000000000000 16.2899999999999991  0.0000000000000000
  0.0000000000000000 19.0049999999999990  2.7149999999999999
  2.7149999999999999 16.2899999999999991  2.7149999999999999
  2.7149999999999999 19.0049999999999990  0.0000000000000000
  1.3574999999999999 17.6475000000000009  1.3574999999999999
  1.3574999999999999 20.3625000000000007  4.0724999999999998
  4.0724999999999998 17.6475000000000009  4.0724999999999998
  4.0724999999999998 20.3625000000000007  1.3574999999999999
  5.4299999999999997 16.2899999999999991  0.0000000000000000
  5.4299999999999997 19.0049999999999990  2.7149999999999999
  8.1449999999999996 16.2899999999999991  2.7149999999999999
  8.1449999999999996 19.0049999999999990  0.0000000000000000
  6.7874999999999996 17.6475000000000009  1.3574999999999999
  6.7874999999999996 20.3625000000000007  4.0724999999999998
  9.5024999999999995 17.6475000000000009  4.0724999999999998
  9.5024999999999995 20.3625000000000007  1.3574999999999999
 10.8599999999999994 16.2899999999999991  0.0000000000000000
 10.8599999999999994 19.0049999999999990  2.7149999999999999
 13.5749999999999993 16.2899999999999991  2.7149999999999999
 13.5749999999999993 19.0049999999999990  0.0000000000000000
 12.2174999999999994 17.6475000000000009  1.3574999999999999
 12.2174999999999994 20.3625000000000007  4.0724999999999998
 14.9324999999999992 17.6475000000000009  4.0724999999999998
 14.9324999999999992 20.3625000000000007  1.3574999999999999
 16.2899999999999991 16.2899999999999991  0.0000000000000000
 16.2899999999999991 19.0049999999999990  2.7149999999999999
 19.0049999999999990 16.2899999999999991  2.7149999999999999
 19.0049999999999990 19.0049999999999990  0.0000000000000000
 17.6475000000000009 17.6475000000000009  1.3574999999999999
 17.6475000000000009 20.3625000000000007  4.0724999999999998
 20.3625000000000007 17.6475000000000009  4.0724999999999998
 20.3625000000000007 20.3625000000000007  1.3574999999999999
  0.0000000000000000  0.0000000000000000  5.4299999999999997
  0.0000000000000000  2.7149999999999999  8.1449999999999996
  2.7149999999999999  0.0000000000000000  8.1449999999999996
  2.7149999999999999  2.7149999999999999  5.4299999999999997
  1.3574999999999999  1.3574999999999999  6.7874999999999996
  1.3574999999999999  4.0724999999999998  9.5024999999999995
  4.0724999999999998  1.3574999999999999  9.5024999999999995
  4.0724999999999998  4.0724999999999998  6.7874999999999996
  5.4299999999999997  0.0000000000000000  5.4299999999999997
  5.4299999999999997  2.7149999999999999  8.1449999999999996
  8.1449999999999996  0.0000000000000000  8.1449999999999996
  8.1449999999999996  2.7149999999999999  5.4299999999999997
  6.7874999999999996  1.3574999999999999  6.7874999999999996
  6.7874999999999996  4.0724999999999998  9.5024999999999995
  9.5024999999999995  1.3574999999999999  9.5024999999999995
  9.5024999999999995  4.0724999999999998  6.7874999999999996
 10.8599999999999994  0.0000000000000000  5.4299999999999997
 10.8599999999999994  2.7149999999999999  8.1449999999999996
 13.5749999999999993  0.0000000000000000  8.1449999999999996
 13.5749999999999993  2.7149999999999999  5.4299999999999997
 12.2174999999999994  1.3574999999999999  6.7874999999999996
 12.2174999999999994  4.0724999999999998  9.5024999999999995
 14.9324999999999992  1.3574999999999999  9.5024999999999995
 14.9324999999999992  4.0724999999999998  6.7874999999999996
 16.2899999999999991  0.0000000000000000  5.4299999999999997
 16.2899999999999991  2.7149999999999999  8.1449999999999996
 19.0049999999999990  0.0000000000000000  8.1449999999999996
 19.0049999999999990  2.7149999999999999  5.4299999999999997
 17.6475000000000009  1.3574999999999999  6.7874999999999996
 17.6475000000000009  4.0724999999999998  9.5024999999999995
 20.3625000000000007  1.3574999999999999  9.5024999999999995
 20.3625000000000007  4.0724999999999998  6.7874999999999996
  0.0000000000000000  5.4299999999999997  5.4299999999999997
  0.0000000000000000  8.1449999999999996  8.1449999999999996
  2.7149999999999999  5.4299999999999997  8.1449999999999996
  2.7149999999999999  8.1449999999999996  5.4299999999999997
  1.3574999999999999  6.7874999999999996  6.7874999999999996
  1.3574999999999999  9.5024999999999995  9.5024999999999995
  4.0724999999999998  6.7874999999999996  9.5024999999999995
  4.0724999999999998  9.5024999999999995  6.7874999999999996
  5.4299999999999997  5.4299999999999997  5.4299999999999997
  5.4299999999999997  8.1449999999999996  8.1449999999999996
  8.1449999999999996  5.4299999999999997  8.1449999999999996
  8.1449999999999996  8.1449999999999996  5.4299999999999997
  6.7874999999999996  6.7874999999999996  6.7874999999999996
  6.7874999999999996  9.5024999999999995  9.5024999999999995
  9.5024999999999995  6.7874999999999996  9.5024999999999995
  9.5024999999999995  9.5024999999999995  6.7874999999999996
 10.8599999999999994  5.4299999999999997  5.4299999999999997
 10.8599999999999994  8.1449999999999996  8.1449999999999996
 13.5749999999999993  5.4299999999999997  8.1449999999999996
 13.5749999999999993  8.1449999999999996  5.4299999999999997
 12.2174999999999994  6.7874999999999996  6.7874999999999996
 12.2174999999999994  9.5024999999999995  9.5024999999999995
 14.9324999999999992  6.7874999999999996  9.5024999999999995
 14.9324999999999992  9.5024999999999995  6.7874999999999996
 16.2899999999999991  5.4299999999999997  5.4299999999999997
 16.2899999999999991  8.1449999999999996  8.1449999999999996
 19.0049999999999990  5.4299999999999997  8.1449999999999996
 19.0049999999999990  8.1449999999999996  5.4299999999999997
 17.6475000000000009  6.7874999999999996  6.7874999999999996
 17.6475000000000009  9.5024999999999995  9.5024999999999995
 20.3625000000000007  6.7874999999999996  9.5024999999999995
 20.3625000000000007  9.5024999999999995  6.7874999999999996
  0.0000000000000000 10.8599999999999994  5.4299999999999997
  0.0000000000000000 13.5749999999999993  8.1449999999999996
  2.7149999999999999 10.8599999999999994  8.1449999999999996
  2.7149999999999999 13.5749999999999993  5.4299999999999997
  1.3574999999999999 12.2174999999999994  6.7874999999999996
  1.3574999999999999 14.9324999999999992  9.5024999999999995
  4.0724999999999998 12.2174999999999994  9.5024999999999995
  4.0724999999999998 14.9324999999999992  6.7874999999999996
  5.4299999999999997 10.8599999999999994  5.4299999999999997
  5.4299999999999997 13.5749999999999993  8.1449999999999996
  8.1449999999999996 10.8599999999999994  8.1449999999999996
  8.1449999999999996 13.5749999999999993  5.4299999999999997
  6.7874999999999996 12.2174999999999994  6.7874999999999996
  6.7874999999999996 14.9324999999999992  9.5024999999999995
  9.5024999999999995 12.2174999999999994  9.5024999999999995
  9.5024999999999995 14.9324999999999992  6.7874999999999996
 10.8599999999999994 10.8599999999999994  5.4299999999999997
 10.8599999999999994 13.5749999999999993  8.1449999999999996
 13.5749999999999993 10.8599999999999994  8.1449999999999996
 13.5749999999999993 13.5749999999999993  5.4299999999999997
 12.2174999999999994 12.2174999999999994  6.7874999999999996
 12.2174999999999994 14.9324999999999992  9.5024999999999995
 14.9324999999999992 12.2174999999999994  9.5024999999999995
 14.9324999999999992 14.9324999999999992  6.7874999999999996
 16.2899999999999991 10.8599999999999994  5.4299999999999997
 16.2899999999999991 13.5749999999999993  8.1449999999999996
 19.0049999999999990 10.8599999999999994  8.1449999999999996
 19.0049999999999990 13.5749999999999993  5.4299999999999997
 17.6475000000000009 12.2174999999999994  6.7874999999999996
 17.6475000000000009 14.9324999999999992  9.5024999999999995
 20.3625000000000007 12.2174999999999994  9.5024999999999995
 20.3625000000000007 14.9324999999999992  6.7874999999999996
  0.0000000000000000 16.2899999999999991  5.4299999999999997
  0.0000000000000000 19.0049999999999990  8.1449999999999996
  2.7149999999999999 16.2899999999999991  8.1449999999999996
  2.7149999999999999 19.0049999999999990  5.4299999999999997
  1.3574999999999999 17.6475000000000009  6.7874999999999996
  1.3574999999999999 20.3625000000000007  9.5024999999999995
  4.0724999999999998 17.6475000000000009  9.5024999999999995
  4.0724999999999998 20.3625000000000007  6.7874999999999996
  5.4299999999999997 16.2899999999999991  5.4299999999999997
  5.4299999999999997 19.0049999999999990  8.1449999999999996
  8.1449999999999996 16.2899999999999991  8.1449999999999996
  8.1449999999999996 19.0049999999999990  5.4299999999999997
  6.7874999999999996 17.6475000000000009  6.7874999999999996
  6.7874999999999996 20.3625000000000007  9.5024999999999995
  9.5024999999999995 17.6475000000000009  9.5024999999999995
  9.5024999999999995 20.3625000000000007  6.7874999999999996
 10.8599999999999994 16.2899999999999991  5.4299999999999997
 10.8599999999999994 19.0049999999999990  8.1449999999999996
 13.5749999999999993 16.2899999999999991  8.1449999999999996
 13.5749999999999993 19.0049999999999990  5.4299999999999997
 12.2174999999999994 17.6475000000000009  6.7874999999999996
 12.2174999999999994 20.3625000000000007  9.5024999999999995
 14.9324999999999992 17.6475000000000009  9.5024999999999995
 14.9324999999999992 20.3625000000000007  6.7874999999999996
 16.2899999999999991 16.2899999999999991  5.4299999999999997
 16.2899999999999991 19.0049999999999990  8.1449999999999996
 19.0049999999999990 16.2899999999999991  8.1449999999999996
 19.0049999999999990 19.0049999999999990  5.4299999999999997
 17.6475000000000009 17.6475000000000009  6.7874999999999996
 17.6475000000000009 20.3625000000000007  9.5024999999999995
 20.3625000000000007 17.6475000000000009  9.5024999999999995
 20.3625000000000007 20.3625000000000007  6.7874999999999996
  0.0000000000000000  0.0000000000000000 10.8599999999999994
  0.0000000000000000  2.7149999999999999 13.5749999999999993
  2.7149999999999999  0.0000000000000000 13.5749999999999993
  2.7149999999999999  2.7149999999999999 10.8599999999999994
  1.3574999999999999  1.3574999999999999 12.2174999999999994
  1.3574999999999999  4.0724999999999998 14.9324999999999992
  4.0724999999999998  1.3574999999999999 14.9324999999999992
  4.0724999999999998  4.0724999999999998 12.2174999999999994
  5.4299999999999997  0.0000000000000000 10.8599999999999994
  5.4299999999999997  2.7149999999999999 13.5749999999999993
  8.1449999999999996  0.0000000000000000 13.5749999999999993
  8.1449999999999996  2.7149999999999999 10.8599999999999994
  6.7874999999999996  1.3574999999999999 12.2174999999999994
  6.7874999999999996  4.0724999999999998 14.9324999999999992
  9.5024999999999995  1.3574999999999999 14.9324999999999992
  9.5024999999999995  4.0724999999999998 12.2174999999999994
 10.8599999999999994  0.0000000000000000 10.8599999999999994
 10.8599999999999994  2.7149999999999999 13.5749999999999993
 13.5749999999999993  0.0000000000000000 13.5749999999999993
 13.5749999999999993  2.7149999999999999 10.8599999999999994
 12.2174999999999994  1.3574999999999999 12.2174999999999994
 12.2174999999999994  4.0724999999999998 14.9324999999999992
 14.9324999999999992  1.3574999999999999 14.9324999999999992
 14.9324999999999992  4.0724999999999998 12.2174999999999994
 16.2899999999999991  0.0000000000000000 10.8599999999999994
 16.2899999999999991  2.7149999999999999 13.5749999999999993
 19.0049999999999990  0.0000000000000000 13.5749999999999993
 19.0049999999999990  2.7149999999999999 10.8599999999999994
 17.6475000000000009  1.3574999999999999 12.2174999999999994
 17.6475000000000009  4.0724999999999998 14.9324999999999992
 20.3625000000000007  1.3574999999999999 14.9324999999999992
 20.3625000000000007  4.0724999999999998 12.2174999999999994
  0.0000000000000000  5.4299999999999997 10.8599999999999994
  0.0000000000000000  8.1449999999999996 13.5749999999999993
  2.7149999999999999  5.4299999999999997 13.5749999999999993
  2.7149999999999999  8.1449999999999996 10.8599999999999994
  1.3574999999999999  6.7874999999999996 12.2174999999999994
  1.3574999999999999  9.5024999999999995 14.9324999999999992
  4.0724999999999998  6.7874999999999996 14.9324999999999992
  4.0724999999999998  9.5024999999999995 12.2174999999999994
  5.4299999999999997  5.4299999999999997 10.8599999999999994
  5.4299999999999997  8.1449999999999996 13.5749999999999993
  8.1449999999999996  5.4299999999999997 13.5749999999999993
  8.1449999999999996  8.1449999999999996 10.8599999999999994
  6.7874999999999996  6.7874999999999996 12.2174999999999994
  6.7874999999999996  9.5024999999999995 14.9324999999999992
  9.5024999999999995  6.7874999999999996 14.9324999999999992
  9.5024999999999995  9.5024999999999995 12.2174999999999994
 10.8599999999999994  5.4299999999999997 10.8599999999999994
 10.8599999999999994  8.1449999999999996 13.5749999999999993
 13.5749999999999993  5.4299999999999997 13.5749999999999993
 13.5749999999999993  8.1449999999999996 10.8599999999999994
 12.2174999999999994  6.7874999999999996 12.2174999999999994
 12.2174999999999994  9.5024999999999995 14.9324999999999992
 14.9324999999999992  6.7874999999999996 14.9324999999999992
 14.9324999999999992  9.5024999999999995 12.2174999999999994
 16.2899999999999991  5.4299999999999997 10.8599999999999994
 16.2899999999999991  8.1449999999999996 13.5749999999999993
 19.0049999999999990  5.4299999999999997 13.5749999999999993
 19.0049999999999990  8.1449999999999996 10.8599999999999994
 17.6475000000000009  6.7874999999999996 12.2174999999999994
 17.6475000000000009  9.5024999999999995 14.9324999999999992
 20.3625000000000007  6.7874999999999996 14.9324999999999992
 20.3625000000000007  9.5024999999999995 12.2174999999999994
  0.0000000000000000 10.8599999999999994 10.8599999999999994
  0.0000000000000000 13.5749999999999993 13.5749999999999993
  2.7149999999999999 10.8599999999999994 13.5749999999999993
  2.7149999999999999 13.5749999999999993 10.8599999999999994
  1.3574999999999999 12.2174999999999994 12.2174999999999994
  1.3574999999999999 14.9324999999999992 14.9324999999999992
  4.0724999999999998 12.2174999999999994 14.9324999999999992
  4.0724999999999998 14.9324999999999992 12.2174999999999994
  5.4299999999999997 10.8599999999999994 10.8599999999999994
  5.4299999999999997 13.5749999999999993 13.5749999999999993
  8.1449999999999996 10.8599999999999994 13.5749999999999993
  8.1449999999999996 13.5749999999999993 10.8599999999999994
  6.7874999999999996 12.2174999999999994 12.2174999999999994
  6.7874999999999996 14.9324999999999992 14.9324999999999992
  9.5024999999999995 12.2174999999999994 14.9324999999999992
  9.5024999999999995 14.9324999999999992 12.2174999999999994
 10.8599999999999994 10.8599999999999994 10.8599999999999994
 10.8599999999999994 13.5749999999999993 13.5749999999999993
 13.5749999999999993 10.8599999999999994 13.5749999999999993
 13.5749999999999993 13.5749999999999993 10.8599999999999994
 12.2174999999999994 12.2174999999999994 12.2174999999999994
 12.2174999999999994 14.9324999999999992 14.9324999999999992
 14.9324999999999992 12.2174999999999994 14.9324999999999992
 14.9324999999999992 14.9324999999999992 12.2174999999999994
 16.2899999999999991 10.8599999999999994 10.8599999999999994
 16.2899999999999991 13.5749999999999993 13.5749999999999993
 19.0049999999999990 10.8599999999999994 13.5749999999999993
 19.0049999999999990 13.5749999999999993 10.8599999999999994
 17.6475000000000009 12.2174999999999994 12.2174999999999994
 17.6475000000000009 14.9324999999999992 14.9324999999999992
 20.3625000000000007 12.2174999999999994 14.9324999999999992
 20.3625000000000007 14.9324999999999992 12.2174999999999994
  0.0000000000000000 16.2899999999999991 10.8599999999999994
  0.0000000000000000 19.0049999999999990 13.5749999999999993
  2.7149999999999999 16.2899999999999991 13.5749999999999993
  2.7149999999999999 19.0049999999999990 10.8599999999999994
  1.3574999999999999 17.6475000000000009 12.2174999999999994
  1.3574999999999999 20.3625000000000007 14.9324999999999992
  4.0724999999999998 17.6475000000000009 14.9324999999999992
  4.0724999999999998 20.3625000000000007 12.2174999999999994
  5.4299999999999997 16.2899999999999991 10.8599999999999994
  5.4299999999999997 19.0049999999999990 13.5749999999999993
  8.1449999999999996 16.2899999999999991 13.5749999999999993
  8.1449999999999996 19.0049999999999990 10.8599999999999994
  6.7874999999999996 17.6475000000000009 12.2174999999999994
  6.7874999999999996 20.3625000000000007 14.9324999999999992
  9.5024999999999995 17.6475000000000009 14.9324999999999992
  9.5024999999999995 20.3625000000000007 12.2174999999999994
 10.8599999999999994 16.2899999999999991 10.8599999999999994
 10.8599999999999994 19.0049999999999990 13.5749999999999993
 13.5749999999999993 16.2899999999999991 13.5749999999999993
 13.5749999999999993 19.0049999999999990 10.8599999999999994
 12.2174999999999994 17.6475000000000009 12.2174999999999994
 12.2174999999999994 20.3625000000000007 14.9324999999999992
 14.9324999999999992 17.6475000000000009 14.9324999999999992
 14.9324999999999992 20.3625000000000007 12.2174999999999994
 16.2899999999999991 16.2899999999999991 10.8599999999999994
 16.2899999999999991 19.0049999999999990 13.5749999999999993
 19.0049999999999990 16.2899999999999991 13.5749999999999993
 19.0049999999999990 19.0049999999999990 10.8599999999999994
 17.6475000000000009 17.6475000000000009 12.2174999999999994
 17.6475000000000009 20.3625000000000007 14.9324999999999992
 20.3625000000000007 17.6475000000000009 14.9324999999999992
 20.3625000000000007 20.3625000000000007 12.2174999999999994
  0.0000000000000000  0.0000000000000000 16.2899999999999991
  0.0000000000000000  2.7149999999999999 19.0049999999999990
  2.7149999999999999  0.0000000000000000 19.0049999999999990
  2.7149999999999999  2.7149999999999999 16.2899999999999991
  1.3574999999999999  1.3574999999999999 17.6475000000000009
  1.3574999999999999  4.0724999999999998 20.3625000000000007
  4.0724999999999998  1.3574999999999999 20.3625000000000007
  4.0724999999999998  4.0724999999999998 17.6475000000000009
  5.4299999999999997  0.0000000000000000 16.2899999999999991
  5.4299999999999997  2.7149999999999999 19.0049999999999990
  8.1449999999999996  0.0000000000000000 19.0049999999999990
  8.1449999999999996  2.7149999999999999 16.2899999999999991
  6.7874999999999996  1.3574999999999999 17.6475000000000009
  6.7874999999999996  4.0724999999999998 20.3625000000000007
  9.5024999999999995  1.3574999999999999 20.3625000000000007
  9.5024999999999995  4.0724999999999998 17.6475000000000009
 10.8599999999999994  0.0000000000000000 16.2899999999999991
 10.8599999999999994  2.7149999999999999 19.0049999999999990
 13.5749999999999993  0.0000000000000000 19.0049999999999990
 13.5749999999999993  2.7149999999999999 16.2899999999999991
 12.2174999999999994  1.3574999999999999 17.6475000000000009
 12.2174999999999994  4.0724999999999998 20.3625000000000007
 14.9324999999999992  1.3574999999999999 20.3625000000000007
 14.9324999999999992  4.0724999999999998 17.6475000000000009
 16.2899999999999991  0.0000000000000000 16.2899999999999991
 16.2899999999999991  2.7149999999999999 19.0049999999999990
 19.0049999999999990  0.0000000000000000 19.0049999999999990
 19.0049999999999990  2.7149999999999999 16.2899999999999991
 17.6475000000000009  1.3574999999999999 17.6475000000000009
 17.6475000000000009  4.0724999999999998 20.3625000000000007
 20.3625000000000007  1.3574999999999999 20.3625000000000007
 20.3625000000000007  4.0724999999999998 17.6475000000000009
  0.0000000000000000  5.4299999999999997 16.2899999999999991
  0.0000000000000000  8.1449999999999996 19.0049999999999990
  2.7149999999999999  5.4299999999999997 19.0049999999999990
  2.7149999999999999  8.1449999999999996 16.2899999999999991
  1.3574999999999999  6.7874999999999996 17.6475000000000009
  1.3574999999999999  9.5024999999999995 20.3625000000000007
  4.0724999999999998  6.7874999999999996 20.3625000000000007
  4.0724999999999998  9.5024999999999995 17.6475000000000009
  5.4299999999999997  5.4299999999999997 16.2899999999999991
  5.4299999999999997  8.1449999999999996 19.0049999999999990
  8.1449999999999996  5.4299999999999997 19.0049999999999990
  8.1449999999999996  8.1449999999999996 16.2899999999999991
  6.7874999999999996  6.7874999999999996 17.6475000000000009
  6.7874999999999996  9.5024999999999995 20.3625000000000007
  9.5024999999999995  6.7874999999999996 20.3625000000000007
  9.5024999999999995  9.5024999999999995 17.6475000000000009
 10.8599999999999994  5.4299999999999997 16.2899999999999991
 10.8599999999999994  8.1449999999999996 19.0049999999999990
 13.5749999999999993  5.4299999999999997 19.0049999999999990
 13.5749999999999993  8.1449999999999996 16.2899999999999991
 12.2174999999999994  6.7874999999999996 17.6475000000000009
 12.2174999999999994  9.5024999999999995 20.3625000000000007
 14.9324999999999992  6.7874999999999996 20.3625000000000007
 14.9324999999999992  9.5024999999999995 17.6475000000000009
 16.2899999999999991  5.4299999999999997 16.2899999999999991
 16.2899999999999991  8.1449999999999996 19.0049999999999990
 19.0049999999999990  5.4299999999999997 19.0049999999999990
 19.0049999999999990  8.1449999999999996 16.2899999999999991
 17.6475000000000009  6.7874999999999996 17.6475000000000009
 17.6475000000000009  9.5024999999999995 20.3625000000000007
 20.3625000000000007  6.7874999999999996 20.3625000000000007
 20.3625000000000007  9.5024999999999995 17.6475000000000009
  0.0000000000000000 10.8599999999999994 16.2899999999999991
  0.0000000000000000 13.5749999999999993 19.0049999999999990
  2.7149999999999999 10.8599999999999994 19.0049999999999990
  2.7149999999999999 13.5749999999999993 16.2899999999999991
  1.3574999999999999 12.2174999999999994 17.6475000000000009
  1.3574999999999999 14.9324999999999992 20.3625000000000007
  4.0724999999999998 12.2174999999999994 20.3625000000000007
  4.0724999999999998 14.9324999999999992 17.6475000000000009
  5.4299999999999997 10.8599999999999994 16.2899999999999991
  5.4299999999999997 13.5749999999999993 19.0049999999999990
  8.1449999999999996 10.8599999999999994 19.0049999999999990
  8.1449999999999996 13.5749999999999993 16.2899999999999991
  6.7874999999999996 12.2174999999999994 17.6475000000000009
  6.7874999999999996 14.9324999999999992 20.3625000000000007
  9.5024999999999995 12.2174999999999994 20.3625000000000007
  9.5024999999999995 14.9324999999999992 17.6475000000000009
 10.8599999999999994 10.8599999999999994 16.2899999999999991
 10.8599999999999994 13.5749999999999993 19.0049999999999990
 13.5749999999999993 10.8599999999999994 19.0049999999999990
 13.5749999999999993 13.5749999999999993 16.2899999999999991
 12.2174999999999994 12.2174999999999994 17.6475000000000009
 12.2174999999999994 14.9324999999999992 20.3625000000000007
 14.9324999999999992 12.2174999999999994 20.3625000000000007
 14.9324999999999992 14.9324999999999992 17.6475000000000009
 16.2899999999999991 10.8599999999999994 16.2899999999999991
 16.2899999999999991 13.5749999999999993 19.0049999999999990
 19.0049999999999990 10.8599999999999994 19.0049999999999990
 19.0049999999999990 13.5749999999999993 16.2899999999999991
 17.6475000000000009 12.2174999999999994 17.6475000000000009
 17.6475000000000009 14.9324999999999992 20.3625000000000007
 20.3625000000000007 12.2174999999999994 20.3625000000000007
 20.3625000000000007 14.9324999999999992 17.6475000000000009
  0.0000000000000000 16.2899999999999991 16.2899999999999991
  0.0000000000000000 19.0049999999999990 19.0049999999999990
  2.7149999999999999 16.2899999999999991 19.0049999999999990
  2.7149999999999999 19.0049999999999990 16.2899999999999991
  1.3574999999999999 17.6475000000000009 17.6475000000000009
  1.3574999999999999 20.3625000000000007 20.3625000000000007
  4.0724999999999998 17.6475000000000009 20.3625000000000007
  4.0724999999999998 20.3625000000000007 17.6475000000000009
  5.4299999999999997 16.2899999999999991 16.2899999999999991
  5.4299999999999997 19.0049999999999990 19.0049999999999990
  8.1449999999999996 16.2899999999999991 19.0049999999999990
  8.1449999999999996 19.0049999999999990 16.2899999999999991
  6.7874999999999996 17.6475000000000009 17.6475000000000009
  6.7874999999999996 20.3625000000000007 20.3625000000000007
  9.5024999999999995 17.6475000000000009 20.3625000000000007
  9.5024999999999995 20.3625000000000007 17.6475000000000009
 10.8599999999999994 16.2899999999999991 16.2899999999999991
 10.8599999999999994 19.0049999999999990 19.0049999999999990
 13.5749999999999993 16.2899999999999991 19.0049999999999990
 13.5749999999999993 19.0049999999999990 16.2899999999999991
 12.2174999999999994 17.6475000000000009 17.6475000000000009
 12.2174999999999994 20.3625000000000007 20.3625000000000007
 14.9324999999999992 17.6475000000000009 20.3625000000000007
 14.9324999999999992 20.3625000000000007 17.6475000000000009
 16.2899999999999991 16.2899999999999991 16.2899999999999991
 16.2899999999999991 19.0049999999999990 19.0049999999999990
 19.0049999999999990 16.2899999999999991 19.0049999999999990
 19.0049999999999990 19.0049999999999990 16.2899999999999991
 17.6475000000000009 17.6475000000000009 17.6475000000000009
 17.6475000000000009 20.3625000000000007 20.3625000000000007
 20.3625000000000007 17.6475000000000009 20.3625000000000007
 20.3625000000000007 20.3625000000000007 17.6475000000000009
  0.0000000000000000  0.0000000000000000 21.7199999999999989
  0.0000000000000000  2.7149999999999999 24.4349999999999987
  2.7149999999999999  0.0000000000000000 24.4349999999999987
  2.7149999999999999  2.7149999999999999 21.7199999999999989
  1.3574999999999999  1.3574999999999999 23.0775000000000006
  1.3574999999999999  4.0724999999999998 25.7925000000000004
  4.0724999999999998  1.3574999999999999 25.7925000000000004
  4.0724999999999998  4.0724999999999998 23.0775000000000006
  5.4299999999999997  0.0000000000000000 21.7199999999999989
  5.4299999999999997  2.7149999999999999 24.4349999999999987
  8.1449999999999996  0.0000000000000000 24.4349999999999987
  8.1449999999999996  2.7149999999999999 21.7199999999999989
  6.7874999999999996  1.3574999999999999 23.0775000000000006
  6.7874999999999996  4.0724999999999998 25.7925000000000004
  9.5024999999999995  1.3574999999999999 25.7925000000000004
  9.5024999999999995  4.0724999999999998 23.0775000000000006
 10.8599999999999994  0.0000000000000000 21.7199999999999989
 10.8599999999999994  2.7149999999999999 24.4349999999999987
 13.5749999999999993  0.0000000000000000 24.4349999999999987
 13.5749999999999993  2.7149999999999999 21.7199999999999989
 12.2174999999999994  1.3574999999999999 23.0775000000000006
 12.2174999999999994  4.0724999999999998 25.7925000000000004
 14.9324999999999992  1.3574999999999999 25.7925000000000004
 14.9324999999999992  4.0724999999999998 23.0775000000000006
 16.2899999999999991  0.0000000000000000 21.7199999999999989
 16.2899999999999991  2.7149999999999999 24.4349999999999987
 19.0049999999999990  0.0000000000000000 24.4349999999999987
 19.0049999999999990  2.7149999999999999 21.7199999999999989
 17.6475000000000009  1.3574999999999999 23.0775000000000006
 17.6475000000000009  4.0724999999999998 25.7925000000000004
 20.3625000000000007  1.3574999999999999 25.7925000000000004
 20.3625000000000007  4.0724999999999998 23.0775000000000006
  0.0000000000000000  5.4299999999999997 21.7199999999999989
  0.0000000000000000  8.1449999999999996 24.4349999999999987
  2.7149999999999999  5.4299999999999997 24.4349999999999987
  2.7149999999999999  8.1449999999999996 21.7199999999999989
  1.3574999999999999  6.7874999999999996 23.0775000000000006
  1.3574999999999999  9.5024999999999995 25.7925000000000004
  4.0724999999999998  6.7874999999999996 25.7925000000000004
  4.0724999999999998  9.5024999999999995 23.0775000000000006
  5.4299999999999997  5.4299999999999997 21.7199999999999989
  5.4299999999999997  8.1449999999999996 24.4349999999999987
  8.1449999999999996  5.4299999999999997 24.4349999999999987
  8.1449999999999996  8.1449999999999996 21.7199999999999989
  6.7874999999999996  6.7874999999999996 23.0775000000000006
  6.7874999999999996  9.5024999999999995 25.7925000000000004
  9.5024999999999995  6.7874999999999996 25.7925000000000004
  9.5024999999999995  9.5024999999999995 23.0775000000000006
 10.8599999999999994  5.4299999999999997 21.7199999999999989
 10.8599999999999994  8.1449999999999996 24.4349999999999987
 13.5749999999999993  5.4299999999999997 24.4349999999999987
 13.5749999999999993  8.1449999999999996 21.7199999999999989
 12.2174999999999994  6.7874999999999996 23.0775000000000006
 12.2174999999999994  9.5024999999999995 25.7925000000000004
 14.9324999999999992  6.7874999999999996 25.7925000000000004
 14.9324999999999992  9.5024999999999995 23.0775000000000006
 16.2899999999999991  5.4299999999999997 21.7199999999999989
 16.2899999999999991  8.1449999999999996 24.4349999999999987
 19.0049999999999990  5.4299999999999997 24.4349999999999987
 19.0049999999999990  8.1449999999999996 21.7199999999999989
 17.6475000000000009  6.7874999999999996 23.0775000000000006
 17.6475000000000009  9.5024999999999995 25.7925000000000004
 20.3625000000000007  6.7874999999999996 25.7925000000000004
 20.3625000000000007  9.5024999999999995 23.0775000000000006
  0.0000000000000000 10.8599999999999994 21.7199999999999989
  0.0000000000000000 13.5749999999999993 24.4349999999999987
  2.7149999999999999 10.8599999999999994 24.4349999999999987
  2.7149999999999999 13.5749999999999993 21.7199999999999989
  1.3574999999999999 12.2174999999999994 23.0775000000000006
  1.3574999999999999 14.9324999999999992 25.7925000000000004
  4.0724999999999998 12.2174999999999994 25.7925000000000004
  4.0724999999999998 14.9324999999999992 23.0775000000000006
  5.4299999999999997 10.8599999999999994 21.7199999999999989
  5.4299999999999997 13.5749999999999993 24.4349999999999987
  8.1449999999999996 10.8599999999999994 24.4349999999999987
  8.1449999999999996 13.5749999999999993 21.7199999999999989
  6.7874999999999996 12.2174999999999994 23.0775000000000006
  6.7874999999999996 14.9324999999999992 25.7925000000000004
  9.5024999999999995 12.2174999999999994 25.7925000000000004
  9.5024999999999995 14.9324999999999992 23.0775000000000006
 10.8599999999999994 10.8599999999999994 21.7199999999999989
 10.8599999999999994 13.5749999999999993 24.4349999999999987
 13.5749999999999993 10.8599999999999994 24.4349999999999987
 13.5749999999999993 13.5749999999999993 21.7199999999999989
 12.2174999999999994 12.2174999999999994 23.0775000000000006
 12.2174999999999994 14.9324999999999992 25.7925000000000004
 14.9324999999999992 12.2174999999999994 25.7925000000000004
 14.9324999999999992 14.9324999999999992 23.0775000000000006
 16.2899999999999991 10.8599999999999994 21.7199999999999989
 16.2899999999999991 13.5749999999999993 24.4349999999999987
 19.0049999999999990 10.8599999999999994 24.4349999999999987
 19.0049999999999990 13.5749999999999993 21.7199999999999989
 17.6475000000000009 12.2174999999999994 23.0775000000000006
 17.6475000000000009 14.9324999999999992 25.7925000000000004
 20.3625000000000007 12.2174999999999994 25.7925000000000004
 20.3625000000000007 14.9324999999999992 23.0775000000000006
  0.0000000000000000 16.2899999999999991 21.7199999999999989
  0.0000000000000000 19.0049999999999990 24.4349999999999987
  2.7149999999999999 16.2899999999999991 24.4349999999999987
  2.7149999999999999 19.0049999999999990 21.7199999999999989
  1.3574999999999999 17.6475000000000009 23.0775000000000006
  1.3574999999999999 20.3625000000000007 25.7925000000000004
  4.0724999999999998 17.6475000000000009 25.7925000000000004
  4.0724999999999998 20.3625000000000007 23.0775000000000006
  5.4299999999999997 16.2899999999999991 21.7199999999999989
  5.4299999999999997 19.0049999999999990 24.4349999999999987
  8.1449999999999996 16.2899999999999991 24.4349999999999987
  8.1449999999999996 19.0049999999999990 21.7199999999999989
  6.7874999999999996 17.6475000000000009 23.0775000000000006
  6.7874999999999996 20.3625000000000007 25.7925000000000004
  9.5024999999999995 17.6475000000000009 25.7925000000000004
  9.5024999999999995 20.3625000000000007 23.0775000000000006
 10.8599999999999994 16.2899999999999991 21.7199999999999989
 10.8599999999999994 19.0049999999999990 24.4349999999999987
 13.5749999999999993 16.2899999999999991 24.4349999999999987
 13.5749999999999993 19.0049999999999990 21.7199999999999989
 12.2174999999999994 17.6475000000000009 23.0775000000000006
 12.2174999999999994 20.3625000000000007 25.7925000000000004
 14.9324999999999992 17.6475000000000009 25.7925000000000004
 14.9324999999999992 20.3625000000000007 23.0775000000000006
 16.2899999999999991 16.2899999999999991 21.7199999999999989
 16.2899999999999991 19.0049999999999990 24.4349999999999987
 19.0049999999999990 16.2899999999999991 24.4349999999999987
 19.0049999999999990 19.0049999999999990 21.7199999999999989
 17.6475000000000009 17.6475000000000009 23.0775000000000006
 17.6475000000000009 20.3625000000000007 25.7925000000000004
 20.3625000000000007 17.6475000000000009 25.7925000000000004
 20.3625000000000007 20.3625000000000007 23.0775000000000006
  0.0000000000000000  0.0000000000000000 27.1499999999999986
  0.0000000000000000  2.7149999999999999 29.8649999999999984
  2.7149999999999999  0.0000000000000000 29.8649999999999984
  2.7149999999999999  2.7149999999999999 27.1499999999999986
  1.3574999999999999  1.3574999999999999 28.5075000000000003
  1.3574999999999999  4.0724999999999998 31.2225000000000001
  4.0724999999999998  1.3574999999999999 31.2225000000000001
  4.0724999999999998  4.0724999999999998 28.5075000000000003
  5.4299999999999997  0.0000000000000000 27.1499999999999986
  5.4299999999999997  2.7149999999999999 29.8649999999999984
  8.1449999999999996  0.0000000000000000 29.8649999999999984
  8.1449999999999996  2.7149999999999999 27.1499999999999986
  6.7874999999999996  1.3574999999999999 28.5075000000000003
  6.7874999999999996  4.0724999999999998 31.2225000000000001
  9.5024999999999995  1.3574999999999999 31.2225000000000001
  9.5024999999999995  4.0724999999999998 28.5075000000000003
 10.8599999999999994  0.0000000000000000 27.1499999999999986
 10.8599999999999994  2.7149999999999999 29.8649999999999984
 13.5749999999999993  0.0000000000000000 29.8649999999999984
 13.5749999999999993  2.7149999999999999 27.1499999999999986
 12.2174999999999994  1.3574999999999999 28.5075000000000003
 12.2174999999999994  4.0724999999999998 31.2225000000000001
 14.9324999999999992  1.3574999999999999 31.2225000000000001
 14.9324999999999992  4.0724999999999998 28.5075000000000003
 16.2899999999999991  0.0000000000000000 27.1499999999999986
 16.2899999999999991  2.7149999999999999 29.8649999999999984
 19.0049999999999990  0.0000000000000000 29.8649999999999984
 19.0049999999999990  2.7149999999999999 27.1499999999999986
 17.6475000000000009  1.3574999999999999 28.5075000000000003
 17.6475000000000009  4.0724999999999998 31.2225000000000001
 20.3625000000000007  1.3574999999999999 31.2225000000000001
 20.3625000000000007  4.0724999999999998 28.5075000000000003
  0.0000000000000000  5.4299999999999997 27.1499999999999986
  0.0000000000000000  8.1449999999999996 29.8649999999999984
  2.7149999999999999  5.4299999999999997 29.8649999999999984
  2.7149999999999999  8.1449999999999996 27.1499999999999986
  1.3574999999999999  6.7874999999999996 28.5075000000000003
  1.3574999999999999  9.5024999999999995 31.2225000000000001
  4.0724999999999998  6.7874999999999996 31.2225000000000001
  4.0724999999999998  9.5024999999999995 28.5075000000000003
  5.4299999999999997  5.4299999999999997 27.1499999999999986
  5.4299999999999997  8.1449999999999996 29.8649999999999984
  8.1449999999999996  5.4299999999999997 29.8649999999999984
  8.1449999999999996  8.1449999999999996 27.1499999999999986
  6.7874999999999996  6.7874999999999996 28.5075000000000003
  6.7874999999999996  9.5024999999999995 31.2225000000000001
  9.5024999999999995  6.7874999999999996 31.2225000000000001
  9.5024999999999995  9.5024999999999995 28.5075000000000003
 10.8599999999999994  5.4299999999999997 27.1499999999999986
 10.8599999999999994  8.1449999999999996 29.8649999999999984
 13.5749999999999993  5.4299999999999997 29.8649999999999984
 13.5749999999999993  8.1449999999999996 27.1499999999999986
 12.2174999999999994  6.7874999999999996 28.5075000000000003
 12.2174999999999994  9.5024999999999995 31.2225000000000001
 14.9324999999999992  6.7874999999999996 31.2225000000000001
 14.9324999999999992  9.5024999999999995 28.5075000000000003
 16.2899999999999991  5.4299999999999997 27.1499999999999986
 16.2899999999999991  8.1449999999999996 29.8649999999999984
 19.0049999999999990  5.4299999999999997 29.8649999999999984
 19.0049999999999990  8.1449999999999996 27.1499999999999986
 17.6475000000000009  6.7874999999999996 28.5075000000000003
 17.6475000000000009  9.5024999999999995 31.2225000000000001
 20.3625000000000007  6.7874999999999996 31.2225000000000001
 20.3625000000000007  9.5024999999999995 28.5075000000000003
  0.0000000000000000 10.8599999999999994 27.1499999999999986
  0.0000000000000000 13.5749999999999993 29.8649999999999984
  2.7149999999999999 10.8599999999999994 29.8649999999999984
  2.7149999999999999 13.5749999999999993 27.1499999999999986
  1.3574999999999999 12.2174999999999994 28.5075000000000003
  1.3574999999999999 14.9324999999999992 31.2225000000000001
  4.0724999999999998 12.2174999999999994 31.2225000000000001
  4.0724999999999998 14.9324999999999992 28.5075000000000003
  5.4299999999999997 10.8599999999999994 27.1499999999999986
  5.4299999999999997 13.5749999999999993 29.8649999999999984
  8.1449999999999996 10.8599999999999994 29.8649999999999984
  8.1449999999999996 13.5749999999999993 27.1499999999999986
  6.7874999999999996 12.2174999999999994 28.5075000000000003
  6.7874999999999996 14.9324999999999992 31.2225000000000001
  9.5024999999999995 12.2174999999999994 31.2225000000000001
  9.5024999999999995 14.9324999999999992 28.5075000000000003
 10.8599999999999994 10.8599999999999994 27.1499999999999986
 10.8599999999999994 13.5749999999999993 29.8649999999999984
 13.5749999999999993 10.8599999999999994 29.8649999999999984
 13.5749999999999993 13.5749999999999993 27.1499999999999986
 12.2174999999999994 12.2174999999999994 28.5075000000000003
 12.2174999999999994 14.9324999999999992 31.2225000000000001
 14.9324999999999992 12.2174999999999994 31.2225000000000001
 14.9324999999999992 14.9324999999999992 28.5075000000000003
 16.2899999999999991 10.8599999999999994 27.1499999999999986
 16.2899999999999991 13.5749999999999993 29.8649999999999984
 19.0049999999999990 10.8599999999999994 29.8649999999999984
 19.0049999999999990 13.5749999999999993 27.1499999999999986
 17.6475000000000009 12.2174999999999994 28.5075000000000003
 17.6475000000000009 14.9324999999999992 31.2225000000000001
 20.3625000000000007 12.2174999999999994 31.2225000000000001
 20.3625000000000007 14.9324999999999992 28.5075000000000003
  0.0000000000000000 16.2899999999999991 27.1499999999999986
  0.0000000000000000 19.0049999999999990 29.8649999999999984
  2.7149999999999999 16.2899999999999991 29.8649999999999984
  2.7149999999999999 19.0049999999999990 27.1499999999999986
  1.3574999999999999 17.6475000000000009 28.5075000000000003
  1.3574999999999999 20.3625000000000007 31.2225000000000001
  4.0724999999999998 17.6475000000000009 31.2225000000000001
  4.0724999999999998 20.3625000000000007 28.5075000000000003
  5.4299999999999997 16.2899999999999991 27.1499999999999986
  5.4299999999999997 19.0049999999999990 29.8649999999999984
  8.1449999999999996 16.2899999999999991 29.8649999999999984
  8.1449999999999996 19.0049999999999990 27.1499999999999986
  6.7874999999999996 17.6475000000000009 28.5075000000000003
  6.7874999999999996 20.3625000000000007 31.2225000000000001
  9.5024999999999995 17.6475000000000009 31.2225000000000001
  9.5024999999999995 20.3625000000000007 28.5075000000000003
 10.8599999999999994 16.2899999999999991 27.1499999999999986
 10.8599999999999994 19.0049999999999990 29.8649999999999984
 13.5749999999999993 16.2899999999999991 29.8649999999999984
 13.5749999999999993 19.0049999999999990 27.1499999999999986
 12.2174999999999994 17.6475000000000009 28.5075000000000003
 12.2174999999999994 20.3625000000000007 31.2225000000000001
 14.9324999999999992 17.6475000000000009 31.2225000000000001
 14.9324999999999992 20.3625000000000007 28.5075000000000003
 16.2899999999999991 16.2899999999999991 27.1499999999999986
 16.2899999999999991 19.0049999999999990 29.8649999999999984
 19.0049999999999990 16.2899999999999991 29.8649999999999984
 19.0049999999999990 19.0049999999999990 27.1499999999999986
 17.6475000000000009 17.6475000000000009 28.5075000000000003
 17.6475000000000009 20.3625000000000007 31.2225000000000001
 20.3625000000000007 17.6475000000000009 31.2225000000000001
 20.3625000000000007 20.3625000000000007 28.5075000000000003
  0.0000000000000000  0.0000000000000000 32.5799999999999983
  0.0000000000000000  2.7149999999999999 35.2950000000000017
  2.7149999999999999  0.0000000000000000 35.2950000000000017
  2.7149999999999999  2.7149999999999999 32.5799999999999983
  1.3574999999999999  1.3574999999999999 33.9375000000000000
  1.3574999999999999  4.0724999999999998 36.6525000000000034
  4.0724999999999998  1.3574999999999999 36.6525000000000034
  4.0724999999999998  4.0724999999999998 33.9375000000000000
  5.4299999999999997  0.0000000000000000 32.5799999999999983
  5.4299999999999997  2.7149999999999999 35.2950000000000017
  8.1449999999999996  0.0000000000000000 35.2950000000000017
  8.1449999999999996  2.7149999999999999 32.5799999999999983
  6.7874999999999996  1.3574999999999999 33.9375000000000000
  6.7874999999999996  4.0724999999999998 36.6525000000000034
  9.5024999999999995  1.3574999999999999 36.6525000000000034
  9.5024999999999995  4.0724999999999998 33.9375000000000000
 10.8599999999999994  0.0000000000000000 32.5799999999999983
 10.8599999999999994  2.7149999999999999 35.2950000000000017
 13.5749999999999993  0.0000000000000000 35.2950000000000017
 13.5749999999999993  2.7149999999999999 32.5799999999999983
 12.2174999999999994  1.3574999999999999 33.9375000000000000
 12.2174999999999994  4.0724999999999998 36.6525000000000034
 14.9324999999999992  1.3574999999999999 36.6525000000000034
 14.9324999999999992  4.0724999999999998 33.9375000000000000
 16.2899999999999991  0.0000000000000000 32.5799999999999983
 16.2899999999999991  2.7149999999999999 35.2950000000000017
 19.0049999999999990  0.0000000000000000 35.2950000000000017
 19.0049999999999990  2.7149999999999999 32.5799999999999983
 17.6475000000000009  1.3574999999999999 33.9375000000000000
 17.6475000000000009  4.0724999999999998 36.6525000000000034
 20.3625000000000007  1.3574999999999999 36.6525000000000034
 20.3625000000000007  4.0724999999999998 33.9375000000000000
  0.0000000000000000  5.4299999999999997 32.5799999999999983
  0.0000000000000000  8.1449999999999996 35.2950000000000017
  2.7149999999999999  5.4299999999999997 35.2950000000000017
  2.7149999999999999  8.1449999999999996 32.5799999999999983
  1.3574999999999999  6.7874999999999996 33.9375000000000000
  1.3574999999999999  9.5024999999999995 36.6525000000000034
  4.0724999999999998  6.7874999999999996 36.6525000000000034
  4.0724999999999998  9.5024999999999995 33.9375000000000000
  5.4299999999999997  5.4299999999999997 32.5799999999999983
  5.4299999999999997  8.1449999999999996 35.2950000000000017
  8.1449999999999996  5.4299999999999997 35.2950000000000017
  8.1449999999999996  8.1449999999999996 32.5799999999999983
  6.7874999999999996  6.7874999999999996 33.9375000000000000
  6.7874999999999996  9.5024999999999995 36.6525000000000034
  9.5024999999999995  6.7874999999999996 36.6525000000000034
  9.5024999999999995  9.5024999999999995 33.9375000000000000
 10.8599999999999994  5.4299999999999997 32.5799999999999983
 10.8599999999999994  8.1449999999999996 35.2950000000000017
 13.5749999999999993  5.4299999999999997 35.2950000000000017
 13.5749999999999993  8.1449999999999996 32.5799999999999983
 12.2174999999999994  6.7874999999999996 33.9375000000000000
 12.2174999999999994  9.5024999999999995 36.6525000000000034
 14.9324999999999992  6.7874999999999996 36.6525000000000034
 14.9324999999999992  9.5024999999999995 33.9375000000000000
 16.2899999999999991  5.4299999999999997 32.5799999999999983
 16.2899999999999991  8.1449999999999996 35.2950000000000017
 19.0049999999999990  5.4299999999999997 35.2950000000000017
 19.0049999999999990  8.1449999999999996 32.5799999999999983
 17.6475000000000009  6.7874999999999996 33.9375000000000000
 17.6475000000000009  9.5024999999999995 36.6525000000000034
 20.3625000000000007  6.7874999999999996 36.6525000000000034
 20.3625000000000007  9.5024999999999995 33.9375000000000000
  0.0000000000000000 10.8599999999999994 32.5799999999999983
  0.0000000000000000 13.5749999999999993 35.2950000000000017
  2.7149999999999999 10.8599999999999994 35.2950000000000017
  2.7149999999999999 13.5749999999999993 32.5799999999999983
  1.3574999999999999 12.2174999999999994 33.9375000000000000
  1.3574999999999999 14.9324999999999992 36.6525000000000034
  4.0724999999999998 12.2174999999999994 36.6525000000000034
  4.0724999999999998 14.9324999999999992 33.9375000000000000
  5.4299999999999997 10.8599999999999994 32.5799999999999983
  5.4299999999999997 13.5749999999999993 35.2950000000000017
  8.1449999999999996 10.8599999999999994 35.2950000000000017
  8.1449999999999996 13.5749999999999993 32.5799999999999983
  6.7874999999999996 12.2174999999999994 33.9375000000000000
  6.7874999999999996 14.9324999999999992 36.6525000000000034
  9.5024999999999995 12.2174999999999994 36.6525000000000034
  9.5024999999999995 14.9324999999999992 33.9375000000000000
 10.8599999999999994 10.8599999999999994 32.5799999999999983
 10.8599999999999994 13.5749999999999993 35.2950000000000017
 13.5749999999999993 10.8599999999999994 35.2950000000000017
 13.5749999999999993 13.5749999999999993 32.5799999999999983
 12.2174999999999994 12.2174999999999994 33.9375000000000000
 12.2174999999999994 14.9324999999999992 36.6525000000000034
 14.9324999999999992 12.2174999999999994 36.6525000000000034
 14.9324999999999992 14.9324999999999992 33.9375000000000000
 16.2899999999999991 10.8599999999999994 32.5799999999999983
 16.2899999999999991 13.5749999999999993 35.2950000000000017
 19.0049999999999990 10.8599999999999994 35.2950000000000017
 19.0049999999999990 13.5749999999999993 32.5799999999999983
 17.6475000000000009 12.2174999999999994 33.9375000000000000
 17.6475000000000009 14.9324999999999992 36.6525000000000034
 20.3625000000000007 12.2174999999999994 36.6525000000000034
 20.3625000000000007 14.9324999999999992 33.9375000000000000
  0.0000000000000000 16.2899999999999991 32.5799999999999983
  0.0000000000000000 19.0049999999999990 35.2950000000000017
  2.7149999999999999 16.2899999999999991 35.2950000000000017
  2.7149999999999999 19.0049999999999990 32.5799999999999983
  1.3574999999999999 17.6475000000000009 33.9375000000000000
  1.3574999999999999 20.3625000000000007 36.6525000000000034
  4.0724999999999998 17.6475000000000009 36.6525000000000034
  4.0724999999999998 20.3625000000000007 33.9375000000000000
  5.4299999999999997 16.2899999999999991 32.5799999999999983
  5.4299999999999997 19.0049999999999990 35.2950000000000017
  8.1449999999999996 16.2899999999999991 35.2950000000000017
  8.1449999999999996 19.0049999999999990 32.5799999999999983
  6.7874999999999996 17.6475000000000009 33.9375000000000000
  6.7874999999999996 20.3625000000000007 36.6525000000000034
  9.5024999999999995 17.6475000000000009 36.6525000000000034
  9.5024999999999995 20.3625000000000007 33.9375000000000000
 10.8599999999999994 16.2899999999999991 32.5799999999999983
 10.8599999999999994 19.0049999999999990 35.2950000000000017
 13.5749999999999993 16.2899999999999991 35.2950000000000017
 13.5749999999999993 19.0049999999999990 32.5799999999999983
 12.2174999999999994 17.6475000000000009 33.9375000000000000
 12.2174999999999994 20.3625000000000007 36.6525000000000034
 14.9324999999999992 17.6475000000000009 36.6525000000000034
 14.9324999999999992 20.3625000000000007 33.9375000000000000
 16.2899999999999991 16.2899999999999991 32.5799999999999983
 16.2899999999999991 19.0049999999999990 35.2950000000000017
 19.0049999999999990 16.2899999999999991 35.2950000000000017
 19.0049999999999990 19.0049999999999990 32.5799999999999983
 17.6475000000000009 17.6475000000000009 33.9375000000000000
 17.6475000000000009 20.3625000000000007 36.6525000000000034
 20.3625000000000007 17.6475000000000009 36.6525000000000034
 20.3625000000000007 20.3625000000000007 33.9375000000000000
  0.0000000000000000  0.0000000000000000 38.0099999999999980
  0.0000000000000000  2.7149999999999999 40.7250000000000014
  2.7149999999999999  0.0000000000000000 40.7250000000000014
  2.7149999999999999  2.7149999999999999 38.0099999999999980
  1.3574999999999999  1.3574999999999999 39.3674999999999997
  1.3574999999999999  4.0724999999999998 42.0825000000000031
  4.0724999999999998  1.3574999999999999 42.0825000000000031
  4.0724999999999998  4.0724999999999998 39.3674999999999997
  5.4299999999999997  0.0000000000000000 38.0099999999999980
  5.4299999999999997  2.7149999999999999 40.7250000000000014
  8.1449999999999996  0.0000000000000000 40.7250000000000014
  8.1449999999999996  2.7149999999999999 38.0099999999999980
  6.7874999999999996  1.3574999999999999 39.3674999999999997
  6.7874999999999996  4.0724999999999998 42.0825000000000031
  9.5024999999999995  1.3574999999999999 42.0825000000000031
  9.5024999999999995  4.0724999999999998 39.3674999999999997
 10.8599999999999994  0.0000000000000000 38.0099999999999980
 10.8599999999999994  2.7149999999999999 40.7250000000000014
 13.5749999999999993  0.0000000000000000 40.7250000000000014
 13.5749999999999993  2.7149999999999999 38.0099999999999980
 12.2174999999999994  1.3574999999999999 39.3674999999999997
 12.2174999999999994  4.0724999999999998 42.0825000000000031
 14.9324999999999992  1.3574999999999999 42.0825000000000031
 14.9324999999999992  4.0724999999999998 39.3674999999999997
 16.2899999999999991  0.0000000000000000 38.0099999999999980
 16.2899999999999991  2.7149999999999999 40.7250000000000014
 19.0049999999999990  0.0000000000000000 40.7250000000000014
 19.0049999999999990  2.7149999999999999 38.0099999999999980
 17.6475000000000009  1.3574999999999999 39.3674999999999997
 17.6475000000000009  4.0724999999999998 42.0825000000000031
 20.3625000000000007  1.3574999999999999 42.0825000000000031
 20.3625000000000007  4.0724999999999998 39.3674999999999997
  0.0000000000000000  5.4299999999999997 38.0099999999999980
  0.0000000000000000  8.1449999999999996 40.7250000000000014
  2.7149999999999999  5.4299999999999997 40.7250000000000014
  2.7149999999999999  8.1449999999999996 38.0099999999999980
  1.3574999999999999  6.7874999999999996 39.3674999999999997
  1.3574999999999999  9.5024999999999995 42.0825000000000031
  4.0724999999999998  6.7874999999999996 42.0825000000000031
  4.0724999999999998  9.5024999999999995 39.3674999999999997
  5.4299999999999997  5.4299999999999997 38.0099999999999980
  5.4299999999999997  8.1449999999999996 40.7250000000000014
  8.1449999999999996  5.4299999999999997 40.7250000000000014
  8.1449999999999996  8.1449999999999996 38.0099999999999980
  6.7874999999999996  6.7874999999999996 39.3674999999999997
  6.7874999999999996  9.5024999999999995 42.0825000000000031
  9.5024999999999995  6.7874999999999996 42.0825000000000031
  9.5024999999999995  9.5024999999999995 39.3674999999999997
 10.8599999999999994  5.4299999999999997 38.0099999999999980
 10.8599999999999994  8.1449999999999996 40.7250000000000014
 13.5749999999999993  5.4299999999999997 40.7250000000000014
 13.5749999999999993  8.1449999999999996 38.0099999999999980
 12.2174999999999994  6.7874999999999996 39.3674999999999997
 12.2174999999999994  9.5024999999999995 42.0825000000000031
 14.9324999999999992  6.7874999999999996 42.0825000000000031
 14.9324999999999992  9.5024999999999995 39.3674999999999997
 16.2899999999999991  5.4299999999999997 38.0099999999999980
 16.2899999999999991  8.1449999999999996 40.7250000000000014
 19.0049999999999990  5.4299999999999997 40.7250000000000014
 19.0049999999999990  8.1449999999999996 38.0099999999999980
 17.6475000000000009  6.7874999999999996 39.3674999999999997
 17.6475000000000009  9.5024999999999995 42.0825000000000031
 20.3625000000000007  6.7874999999999996 42.0825000000000031
 20.3625000000000007  9.5024999999999995 39.3674999999999997
  0.0000000000000000 10.8599999999999994 38.0099999999999980
  0.0000000000000000 13.5749999999999993 40.7250000000000014
  2.7149999999999999 10.8599999999999994 40.7250000000000014
  2.7149999999999999 13.5749999999999993 38.0099999999999980
  1.3574999999999999 12.2174999999999994 39.3674999999999997
  1.3574999999999999 14.9324999999999992 42.0825000000000031
  4.0724999999999998 12.2174999999999994 42.0825000000000031
  4.0724999999999998 14.9324999999999992 39.3674999999999997
  5.4299999999999997 10.8599999999999994 38.0099999999999980
  5.4299999999999997 13.5749999999999993 40.7250000000000014
  8.1449999999999996 10.8599999999999994 40.7250000000000014
  8.1449999999999996 13.5749999999999993 38.0099999999999980
  6.7874999999999996 12.2174999999999994 39.3674999999999997
  6.7874999999999996 14.9324999999999992 42.0825000000000031
  9.5024999999999995 12.2174999999999994 42.0825000000000031
  9.5024999999999995 14.9324999999999992 39.3674999999999997
 10.8599999999999994 10.8599999999999994 38.0099999999999980
 10.8599999999999994 13.5749999999999993 40.7250000000000014
 13.5749999999999993 10.8599999999999994 40.7250000000000014
 13.5749999999999993 13.5749999999999993 38.0099999999999980
 12.2174999999999994 12.2174999999999994 39.3674999999999997
 12.2174999999999994 14.9324999999999992 42.0825000000000031
 14.9324999999999992 12.2174999999999994 42.0825000000000031
 14.9324999999999992 14.9324999999999992 39.3674999999999997
 16.2899999999999991 10.8599999999999994 38.0099999999999980
 16.2899999999999991 13.5749999999999993 40.7250000000000014
 19.0049999999999990 10.8599999999999994 40.7250000000000014
 19.0049999999999990 13.5749999999999993 38.0099999999999980
 17.6475000000000009 12.2174999999999994 39.3674999999999997
 17.6475000000000009 14.9324999999999992 42.0825000000000031
 20.3625000000000007 12.2174999999999994 42.0825000000000031
 20.3625000000000007 14.9324999999999992 39.3674999999999997
  0.0000000000000000 16.2899999999999991 38.0099999999999980
  0.0000000000000000 19.0049999999999990 40.7250000000000014
  2.7149999999999999 16.2899999999999991 40.7250000000000014
  2.7149999999999999 19.0049999999999990 38.0099999999999980
  1.3574999999999999 17.6475000000000009 39.3674999999999997
  1.3574999999999999 20.3625000000000007 42.0825000000000031
  4.0724999999999998 17.6475000000000009 42.0825000000000031
  4.0724999999999998 20.3625000000000007 39.3674999999999997
  5.4299999999999997 16.2899999999999991 38.0099999999999980
  5.4299999999999997 19.0049999999999990 40.7250000000000014
  8.1449999999999996 16.2899999999999991 40.7250000000000014
  8.1449999999999996 19.0049999999999990 38.0099999999999980
  6.7874999999999996 17.6475000000000009 39.3674999999999997
  6.7874999999999996 20.3625000000000007 42.0825000000000031
  9.5024999999999995 17.6475000000000009 42.0825000000000031
  9.5024999999999995 20.3625000000000007 39.3674999999999997
 10.8599999999999994 16.2899999999999991 38.0099999999999980
 10.8599999999999994 19.0049999999999990 40.7250000000000014
 13.5749999999999993 16.2899999999999991 40.7250000000000014
 13.5749999999999993 19.0049999999999990 38.0099999999999980
 12.2174999999999994 17.6475000000000009 39.3674999999999997
 12.2174999999999994 20.3625000000000007 42.0825000000000031
 14.9324999999999992 17.6475000000000009 42.0825000000000031
 14.9324999999999992 20.3625000000000007 39.3674999999999997
 16.2899999999999991 16.2899999999999991 38.0099999999999980
 16.2899999999999991 19.0049999999999990 40.7250000000000014
 19.0049999999999990 16.2899999999999991 40.7250000000000014
 19.0049999999999990 19.0049999999999990 38.0099999999999980
 17.6475000000000009 17.6475000000000009 39.3674999999999997
 17.6475000000000009 20.3625000000000007 42.0825000000000031
 20.3625000000000007 17.6475000000000009 42.0825000000000031
 20.3625000000000007 20.3625000000000007 39.3674999999999997
  0.0000000000000000  0.0000000000000000 43.4399999999999977
  2.7149999999999999  2.7149999999999999 43.4399999999999977
  5.4299999999999997  0.0000000000000000 43.4399999999999977
  8.1449999999999996  2.7149999999999999 43.4399999999999977
 10.8599999999999994  0.0000000000000000 43.4399999999999977
 13.5749999999999993  2.7149999999999999 43.4399999999999977
 16.2899999999999991  0.0000000000000000 43.4399999999999977
 19.0049999999999990  2.7149999999999999 43.4399999999999977
  0.0000000000000000  5.4299999999999997 43.4399999999999977
  2.7149999999999999  8.1449999999999996 43.4399999999999977
  5.4299999999999997  5.4299999999999997 43.4399999999999977
  8.1449999999999996  8.1449999999999996 43.4399999999999977
 10.8599999999999994  5.4299999999999997 43.4399999999999977
 13.5749999999999993  8.1449999999999996 43.4399999999999977
 16.2899999999999991  5.4299999999999997 43.4399999999999977
 19.0049999999999990  8.1449999999999996 43.4399999999999977
  0.0000000000000000 10.8599999999999994 43.4399999999999977
  2.7149999999999999 13.5749999999999993 43.4399999999999977
  5.4299999999999997 10.8599999999999994 43.4399999999999977
  8.1449999999999996 13.5749999999999993 43.4399999999999977
 10.8599999999999994 10.8599999999999994 43.4399999999999977
 13.5749999999999993 13.5749999999999993 43.4399999999999977
 16.2899999999999991 10.8599999999999994 43.4399999999999977
 19.0049999999999990 13.5749999999999993 43.4399999999999977
  0.0000000000000000 16.2899999999999991 43.4399999999999977
  2.7149999999999999 19.0049999999999990 43.4399999999999977
  5.4299999999999997 16.2899999999999991 43.4399999999999977
  8.1449999999999996 19.0049999999999990 43.4399999999999977
 10.8599999999999994 16.2899999999999991 43.4399999999999977
 13.5749999999999993 19.0049999999999990 43.4399999999999977
 16.2899999999999991 16.2899999999999991 43.4399999999999977
 19.0049999999999990 19.0049999999999990 43.4399999999999977
Cartesian
  0.0000000000000000  0.0000000000000000  0.0000000000000000
  0.0000000000000000  0.0000000000000000  0.0000000000000000
  0.0000000000000000  0.0000000000000000  0.0000000000000000
  0.0000000000000000  0.0000000000000000  0.0000000000000000
  0.0000000000000000  0.0000000000000000  0.0000000000000000
 -0.0000100282451130  0.0001627910129963 -0.0001290107203133
 -0.0001312079700908 -0.0000399029460566 -0.0000390415609756
  0.0000000000000000  0.0000000000000000  0.0000000000000000
  0.0000000000000000  0.0000000000000000  0.0000000000000000
  0.0000000000000000  0.0000000000000000  0.0000000000000000
  0.0000000000000000  0.0000000000000000  0.0000000000000000
  0.0000000000000000  0.0000000000000000  0.0000000000000000
  0.0000000000000000  0.0000000000000000  0.0000000000000000
 -0.0000970709204202 -0.0000623355670287 -0.0001560244742745
  0.0001808915848318  0.0001309904703578  0.0000794254470358
  0.0000000000000000  0.0000000000000000  0.0000000000000000
  0.0000000000000000  0.0000000000000000  0.0000000000000000
  0.0000000000000000  0.0000000000000000  0.0000000000000000
  0.0000000000000000  0.0000000000000000  0.0000000000000000
  0.0000000000000000  0.0000000000000000  0.0000000000000000
  0.0000000000000000  0.0000000000000000  0.0000000000000000
  0.0001372286928966  0.0000203525554566 -0.0000789150763753
 -0.0000061095172512 -0.0000799982681147 -0.0000891989375111
  0.0000000000000000  0.0000000000000000  0.0000000000000000
  0.0000000000000000  0.0000000000000000  0.0000000000000000
  0.0000000000000000  0.0000000000000000  0.0000000000000000
  0.0000000000000000  0.0000000000000000  0.0000000000000000
  0.0000000000000000  0.0000000000000000  0.0000000000000000
  0.0000000000000000  0.0000000000000000  0.0000000000000000
 -0.0001029864824639 -0.0001432612597472  0.0001685102510237
  0.0000865713541036 -0.0000515251842621  0.0000170627104860
  0.0000000000000000  0.0000000000000000  0.0000000000000000
  0.0000000000000000  0.0000000000000000  0.0000000000000000
  0.0000000000000000  0.0000000000000000  0.0000000000000000
  0.0000000000000000  0.0000000000000000  0.0000000000000000
  0.0000000000000000  0.0000000000000000  0.0000000000000000
  0.0000000000000000  0.0000000000000000  0.0000000000000000
 -0.0000262546583586 -0.0001009514602101  0.0001854045248353
 -0.0001144967406089 -0.0000262822585722 -0.0001087731956560
  0.0000000000000000  0.0000000000000000  0.0000000000000000
  0.0000000000000000  0.0000000000000000  0.0000000000000000
  0.0000000000000000  0.0000000000000000  0.0000000000000000
  0.0000000000000000  0.0000000000000000  0.0000000000000000
  0.0000000000000000  0.0000000000000000  0.0000000000000000
  0.0000000000000000  0.0000000000000000  0.0000000000000000
  0.0000590662517358  0.0000364592002848 -0.0000023975218088
  0.0000895359544241  0.0001027083268649 -0.0001092010169129
  0.0000000000000000  0.0000000000000000  0.0000000000000000
  0.0000000000000000  0.0000000000000000  0.0000000000000000
  0.0000000000000000  0.0000000000000000  0.0000000000000000
  0.0000000000000000  0.0000000000000000  0.0000000000000000
  0.0000000000000000  0.0000000000000000  0.0000000000000000
  0.0000000000000000  0.0000000000000000  0.0000000000000000
 -0.0000466224675093  0.0001525670899056  0.0000572372440805
 -0.0001555417397187  0.0000273366656934  0.0000680917728325
  0.0000000000000000  0.0000000000000000  0.0000000000000000
  0.0000000000000000  0.0000000000000000  0.0000000000000000
  0.0000000000000000  0.0000000000000000  0.0000000000000000
  0.0000000000000000  0.0000000000000000  0.0000000000000000
  0.0000000000000000  0.0000000000000000  0.0000000000000000
  0.0000000000000000  0.0000000000000000  0.0000000000000000
  0.0000384579725832 -0.0001019133402172  0.0000892883062133
 -0.0001748895253694 -0.0001059187808439 -0.0000298902776571
  0.0000000000000000  0.0000000000000000  0.0000000000000000
  0.0000000000000000  0.0000000000000000  0.0000000000000000
  0.0000000000000000  0.0000000000000000  0.0000000000000000
  0.0000000000000000  0.0000000000000000  0.0000000000000000
  0.0000000000000000  0.0000000000000000  0.0000000000000000
  0.0000000000000000  0.0000000000000000  0.0000000000000000
 -0.0000849275442407 -0.0001241137461278 -0.0001447004906534
 -0.0001417355314225  0.0001514454947481 -0.0001688957208474
  0.0000000000000000  0.0000000000000000  0.0000000000000000
  0.0000000000000000  0.0000000000000000  0.0000000000000000
  0.0000000000000000  0.0000000000000000  0.0000000000000000
  0.0000000000000000  0.0000000000000000  0.0000000000000000
  0.0000000000000000  0.0000000000000000  0.0000000000000000
  0.0000000000000000  0.0000000000000000  0.0000000000000000
 -0.0001806180950685  0.0000309859953712  0.0000452984468578
  0.0000560208965640 -0.0000181391188179  0.0001609225251914
  0.0000000000000000  0.0000000000000000  0.0000000000000000
  0.0000000000000000  0.0000000000000000  0.0000000000000000
  0.0000000000000000  0.0000000000000000  0.0000000000000000
  0.0000000000000000  0.0000000000000000  0.0000000000000000
  0.0000000000000000  0.0000000000000000  0.0000000000000000
  0.0000000000000000  0.0000000000000000  0.0000000000000000
  0.0000100346696101 -0.0001029688958519 -0.0001208853466263
 -0.0001604548648745 -0.0000066371873954 -0.0000927449727613
  0.0000000000000000  0.0000000000000000  0.0000000000000000
  0.0000000000000000  0.0000000000000000  0.0000000000000000
  0.0000000000000000  0.0000000000000000  0.0000000000000000
  0.0000000000000000  0.0000000000000000  0.0000000000000000
  0.0000000000000000  0.0000000000000000  0.0000000000000000
  0.0000000000000000  0.0000000000000000  0.0000000000000000
 -0.0001464943250846  0.0001583796446502 -0.0001306907801317
  0.0001205009535339  0.0000953836823927 -0.0001309133046110
  0.0000000000000000  0.0000000000000000  0.0000000000000000
  0.0000000000000000  0.0000000000000000  0.0000000000000000
  0.0000000000000000  0.0000000000000000  0.0000000000000000
  0.0000000000000000  0.0000000000000000  0.0000000000000000
  0.0000000000000000  0.0000000000000000  0.0000000000000000
  0.0000000000000000  0.0000000000000000  0.0000000000000000
 -0.0000235831802030 -0.0001231059255831 -0.0000034721104647
 -0.0000753094619904  0.0000983123916682  0.0001472588043440
  0.0000000000000000  0.0000000000000000  0.0000000000000000
  0.0000000000000000  0.0000000000000000  0.0000000000000000
  0.0000000000000000  0.0000000000000000  0.0000000000000000
  0.0000000000000000  0.0000000000000000  0.0000000000000000
  0.0000000000000000  0.0000000000000000  0.0000000000000000
  0.0000000000000000  0.0000000000000000  0.0000000000000000
  0.0001253613188535 -0.0000262294987360  0.0000474429367990
 -0.0000566371458074 -0.0001611597649991 -0.0000795485533203
  0.0000000000000000  0.0000000000000000  0.0000000000000000
  0.0000000000000000  0.0000000000000000  0.0000000000000000
  0.0000000000000000  0.0000000000000000  0.0000000000000000
  0.0000000000000000  0.0000000000000000  0.0000000000000000
  0.0000000000000000  0.0000000000000000  0.0000000000000000
  0.0000000000000000  0.0000000000000000  0.0000000000000000
  0.0000769862916147 -0.0000907749132989 -0.0000641807256543
  0.0000188712243546  0.0001343749959053 -0.0000095157568809
  0.0000000000000000  0.0000000000000000  0.0000000000000000
  0.0000000000000000  0.0000000000000000  0.0000000000000000
  0.0000000000000000  0.0000000000000000  0.0000000000000000
  0.0000000000000000  0.0000000000000000  0.0000000000000000
  0.0000000000000000  0.0000000000000000  0.0000000000000000
  0.0000000000000000  0.0000000000000000  0.0000000000000000
  0.0000116996910806  0.0001246958988784 -0.0001660212070500
  0.0001691455225209 -0.0000657717756810  0.0001588300772654
  0.0000000000000000  0.0000000000000000  0.0000000000000000
 -0.0001750481637885  0.0001495181456293 -0.0000589381207050
  0.0001105620053409 -0.0000434568773367  0.0001241744019939
 -0.0000175744450062  0.0000650317023322 -0.0000496685405020
 -0.0000411189346626 -0.0001132355292861  0.0000778544959943
  0.0001309527847605  0.0000889405219868  0.0000488882691828
  0.0001319300979170  0.0000804067082072  0.0001517581057504
  0.0001154324201531  0.0000032317696706 -0.0000347482382767
 -0.0001823293800961  0.0001236715684529  0.0001504003475165
 -0.0000581047306391  0.0000057944297668 -0.0000601727726544
  0.0001767002285918  0.0001766424440093  0.0000299573939113
  0.0000665882969557  0.0000959145109489  0.0000220908305501
  0.0000630842542282  0.0000030273773473  0.0001822278084387
  0.0001801066476767  0.0000873207591241 -0.0001486589140110
  0.0001658474943920  0.0000177622269539 -0.0001532120519850
 -0.0000248118742389  0.0000433172611714 -0.0001473880121061
 -0.0000187900029197  0.0000874736549760 -0.0001364857482642
 -0.0001279321944098 -0.0001317944297668  0.0000559512679366
  0.0001453849328823  0.0001422685134413  0.0000835396375289
 -0.0000063824686487  0.0000802897034004  0.0000094150107175
 -0.0000565391632544  0.0000254336507032 -0.0001417943927363
  0.0001282706469646 -0.0000691835784226  0.0001574766259569
  0.0001718951354816  0.0001302152237849 -0.0001635967669575
  0.0000093586258857 -0.0001432422374933  0.0001212327719423
 -0.0001534550343600  0.0000386123040769  0.0000280646796511
  0.0000300007861848 -0.0001691397799537 -0.0001607599387573
 -0.0001520610261706  0.0000951363930924  0.0000960534092932
 -0.0000531941178565 -0.0000000026825972  0.0000214900503472
 -0.0001733160619548  0.0000427717172868  0.0001805165234111
 -0.0000907695296422 -0.0000661827281467 -0.0001710825622218
 -0.0001692018714616  0.0001637116183016  0.0000014122587858
 -0.0001581298429767 -0.0000123426073705  0.0000691667096315
 -0.0001624435876803  0.0001675372447926  0.0000256032717821
 -0.0000690120192273  0.0000280429296778 -0.0001143664561154
 -0.0001624801965462 -0.0000835303058572  0.0000758205504718
 -0.0000922101961901 -0.0001746332633078 -0.0000939354787253
 -0.0000858442015311  0.0001758844251380  0.0000679302631298
 -0.0001280244343956  0.0001411741954780 -0.0000511784767670
  0.0001464422830693  0.0000158176501335  0.0000340557923447
 -0.0000780375403240 -0.0000993905586612  0.0001246015054299
 -0.0001478987416771 -0.0000749243510771  0.0000870741876447
 -0.0001331686978814 -0.0001229515940894  0.0000318479188179
  0.0000666209578067 -0.0000907246658359  0.0000455356866655
  0.0000311450644828  0.0000715419789923  0.0001701454470358
  0.0001747007384725  0.0001743289072459 -0.0001441359245149
 -0.0001477993234823  0.0001358935460210 -0.0000545141904931
 -0.0000376726765177  0.0001006923268649 -0.0000217421849386
  0.0000089912451487 -0.0001090940615987 -0.0000742811835499
  0.0000838683995015  0.0001704451372619 -0.0000405805689870
  0.0000382444208652 -0.0000372269097383  0.0000127979929500
 -0.0001732432031333  0.0001719303087057  0.0000824356289834
  0.0000605015346270  0.0000555923574862  0.0001787370453979
 -0.0000504703464483  0.0001273048189425 -0.0001430807277906
  0.0000557714538010  0.0001754049207762  0.0000476981221293
 -0.0001507822282357  0.0000348171131921  0.0001559114174826
  0.0001615825615097 -0.0000774891251558  0.0000821118917572
  0.0001001055082784 -0.0001175532220046  0.0001853241288944
 -0.0000027420184155 -0.0000914062367812 -0.0000846867153285
  0.0001408145672067  0.0000259925101656  0.0001200720555457
  0.0000573165632900 -0.0001514182175539  0.0000293184256365
 -0.0000811396033470 -0.0000069027093466 -0.0001729528445790
  0.0001712257674915 -0.0001618754324372 -0.0000565341385081
 -0.0000254399316361  0.0000792607071390 -0.0001204826491009
  0.0000369964892291  0.0001737664945701 -0.0000979096941428
 -0.0000455216891579  0.0000253034738829 -0.0001387447306391
 -0.0001082251393983 -0.0001706134662631 -0.0000977377760370
 -0.0000762641637885  0.0001221092312622 -0.0001785432337547
  0.0000754551796333  0.0001094863507210 -0.0001379748677230
  0.0000465144354638  0.0001734524479259  0.0001003947901015
 -0.0001306229460566 -0.0000708460516290 -0.0000279704297668
  0.0001487827381164 -0.0000932488830336 -0.0000086109795264
  0.0001128120149546  0.0001561515285740  0.0000364832472850
  0.0001822522143493 -0.0000040280519850 -0.0000673581598718
 -0.0000608633163610  0.0000268216291971  0.0001766772583229
  0.0000281542636995 -0.0001597890859890 -0.0000492945558127
  0.0000326467816984  0.0001106395299982 -0.0001144245996083
 -0.0000457725675628 -0.0001732001338793 -0.0001108774876268
  0.0000447353163610 -0.0001448221612961 -0.0001351200940004
 -0.0001821021897810 -0.0000790446430479 -0.0001317492070500
 -0.0001408942453267  0.0000524192301941  0.0001701982068720
 -0.0000326704697881  0.0001737521381520  0.0000260484284137
  0.0001084013644294  0.0001630551710878 -0.0000741135723696
 -0.0000174465293217  0.0000232882993769 -0.0000421791561332
 -0.0001695019205982 -0.0001307801488339 -0.0000648048709275
  0.0001206136514153  0.0001612376485669  0.0000588771059284
  0.0000123440071212 -0.0000028636459890  0.0001462233476945
 -0.0001433735987182  0.0000120202698950  0.0001249040669396
 -0.0001747653423536  0.0001546767655332  0.0000872374918996
  0.0000534579170376  0.0000017461316432 -0.0001689746811465
 -0.0001648525946235 -0.0001459412440805  0.0000480760548335
 -0.0000030542705074  0.0001388290745950 -0.0000205478027417
 -0.0000038892613139 -0.0000163977570945 -0.0001551149951932
  0.0001321508278440  0.0001332498116432  0.0000714859889621
  0.0001063494733844  0.0000088384928610 -0.0000290102292327
 -0.0001613133786719  0.0001694645939113 -0.0000890248659427
 -0.0000917497140823 -0.0001071010318675 -0.0001772691016557
 -0.0000532472366032 -0.0001630214335054  0.0000396488374577
  0.0000618829809507 -0.0001031648609578 -0.0001300307438134
 -0.0001066577774613 -0.0001242860231440 -0.0001178827017981
 -0.0000929585244793  0.0000283171731529  0.0001124828940716
 -0.0000303632857397 -0.0001280886793662 -0.0001191902125690
 -0.0001567537803098  0.0001102956937867 -0.0000486549773901
 -0.0001754178415524  0.0001446584981307  0.0000756346348585
  0.0000754932241410  0.0000159346549404  0.0001744121744704
 -0.0000590063136906 -0.0001748044635927 -0.0000465919601211
  0.0001721513975432  0.0000534202314403 -0.0001741975460210
  0.0000710854448994  0.0000773067986470 -0.0000880827260103
  0.0000389557813780 -0.0001340063948727  0.0001292314502403
 -0.0001241173352323  0.0000719296022788  0.0001124437728325
  0.0000438660352501 -0.0001466378892647  0.0000257822963148
  0.0000180635322770  0.0000722895894606 -0.0000461422453267
  0.0000576446074417 -0.0001201639366210  0.0001373704625245
  0.0000787905344490 -0.0000777234936799  0.0001552564059106
  0.0001121849983977 -0.0001607136393092  0.0001134515933772
  0.0001789861292505 -0.0001153653038989  0.0000717792188001
 -0.0000804271661029 -0.0000835220509169 -0.0001529303072815
 -0.0000410220288410  0.0000519863841908 -0.0001699383557059
  0.0000744810966708  0.0001712796040591  0.0001037789567385
  0.0001338531401104 -0.0001043995129072 -0.0000593505088125
  0.0001183887655332  0.0000213938264554 -0.0001085678988784
  0.0001450547352679  0.0000731039572726  0.0001268037799537
 -0.0000178099979348  0.0001230983884636  0.0000128724309774
 -0.0000178365931992  0.0000415302460388  0.0001327868171622
  0.0001034484002136 -0.0001783759814848 -0.0001765100060531
 -0.0000829650218978 -0.0000118214335054  0.0000631126081538
 -0.0000176625934129  0.0000442163318497 -0.0000134857012640
 -0.0000078447416058 -0.0000263627621862 -0.0000012861268862
  0.0001425621021898 -0.0001860441032580 -0.0001328474730283
  0.0000317229461990 -0.0000766133836568 -0.0001730748741321
 -0.0000532519024390  0.0001269347822681 -0.0001508130945344
  0.0001189526138508  0.0000003295939270  0.0001277674545131
  0.0001072384945701 -0.0000263303166815  0.0001790920078334
  0.0000700525006231 -0.0001172750664056  0.0001149654776571
  0.0000600310030265 -0.0001823344048424  0.0001298010411252
 -0.0000465715022254 -0.0000853855139754 -0.0000612304817518
 -0.0000661956489229 -0.0001173863286452  0.0000672508456471
  0.0001400662389176 -0.0001346413074595  0.0000487831084209
 -0.0001770975424604  0.0000368787666014  0.0001135047121239
 -0.0000205161109489 -0.0000708259526438 -0.0000569860067652
  0.0000529916923625 -0.0001629299113406  0.0001176881723340
  0.0001668642876981 -0.0000566202770162 -0.0001527558768026
 -0.0000274831370482  0.0000696903599786  0.0000961894363539
  0.0000418941812355 -0.0000489557443475  0.0001058032116788
 -0.0001760821847962 -0.0000632113085277  0.0000953836823927
  0.0000081237226989 -0.0000807142944632 -0.0000721786861314
 -0.0000028004418586  0.0000222972399502  0.0001009403339861
 -0.0000974495709453  0.0001478585437066  0.0001723929442763
 -0.0000299237281111 -0.0000445748833897 -0.0000381862773723
  0.0001061226419797 -0.0001520671276482  0.0000813488481396
  0.0000614917685597 -0.0001016158034538 -0.0000210534357842
 -0.0001021735502938  0.0000046030624177  0.0000039090372797
  0.0001703414121417 -0.0000499886886238 -0.0000914371030799
 -0.0000936085113050  0.0000627002200463 -0.0001518510635571
 -0.0001642492661563  0.0001312165839416 -0.0001387343222361
  0.0000630411849742  0.0000051263538544  0.0000336299450952
  0.0000693138629161 -0.0001162582730995  0.0000393197165747
  0.0000094652581805 -0.0001768071839060 -0.0001080105109489
  0.0000205615131209  0.0000556616272031 -0.0001223227829802
  0.0001548354039523  0.0001087390991633  0.0000867992622396
 -0.0000060032079758 -0.0001192540986292  0.0000863172455047
 -0.0000701766836390  0.0001755764799715  0.0000089521956917
 -0.0001656633733310  0.0001064460202955 -0.0001061111568453
  0.0001684015011572 -0.0001490332576108 -0.0000598662631298
 -0.0001484719216664  0.0001504516717109 -0.0000719245775325
 -0.0001121548499199 -0.0001150142894784  0.0001260629887840
 -0.0000535401075307  0.0000292630457540 -0.0000603450496706
 -0.0001606235527862  0.0000755868997686 -0.0001431306163432
 -0.0000497202236069 -0.0000513069667082  0.0000318869682749
 -0.0000072625888553 -0.0001028278440449  0.0000569662666904
  0.0000377200526972 -0.0000859044984867 -0.0000171460853837
 -0.0001707035527862  0.0001260231497241 -0.0001347030400570
 -0.0001153635093466  0.0000117901724052 -0.0000903671910272
 -0.0000091595741499  0.0001535192793306 -0.0000105495266512
  0.0000363859825530  0.0001360500309774  0.0000199366141357
  0.0000137999991455 -0.0000018383752181 -0.0001525710379206
  0.0001545608374577 -0.0001260080754851  0.0001596038881965
  0.0001344234488161 -0.0000156632468578  0.0001377577269005
  0.0000158725634324  0.0001360392636639 -0.0001583010432615
 -0.0000964435449528 -0.0001044928296244 -0.0001694721310308
 -0.0001254248460032  0.0000062081817340 -0.0000453329022610
  0.0001464211073527  0.0000259795534983 -0.0000977765383657
  0.0000016121934413  0.0000459351539968  0.0000220854110023
 -0.0000281825099519  0.0000024520080043  0.0000076754794374
 -0.0000750768880185 -0.0000068657774613  0.0000825910372085
  0.0001166904012818 -0.0000371702018871 -0.0001291944824639
  0.0000686233192095 -0.0000375183450240 -0.0001345174833541
  0.0000821926466085  0.0001285649535339 -0.0001474450788677
  0.0001177972811109 -0.0000586897546733  0.0001278683083497
 -0.0000232473476945  0.0000426938337191 -0.0000359470350721
  0.0001204560897276  0.0000714490211857  0.0000688447669575
 -0.0000962798817874  0.0000853776179455  0.0000631075834075
 -0.0001027183763575 -0.0000178571587680  0.0001517494918996
 -0.0000268272640912  0.0001362754267403  0.0001563033476945
  0.0001766575182482 -0.0001777827025102 -0.0000682575894606
  0.0001571740644472 -0.0000296167161118  0.0000924456414456
 -0.0000663280868791 -0.0001514691828378 -0.0000989060295531
  0.0000135308521987 -0.0001429174235357  0.0001004026861314
 -0.0000021519624568 -0.0000352642438312  0.0001315614968845
 -0.0000379070450418 -0.0001822701598718  0.0001154133978992
 -0.0000817328823215 -0.0001164614164145 -0.0000890582446146
  0.0000752068136016 -0.0000462567377604  0.0001840076453623
  0.0001467444856685 -0.0000177060215774  0.0001352794502403
 -0.0000065818792950  0.0000155954486737 -0.0000483168837458
  0.0000325879203845 -0.0001482253501869  0.0000041284033470
 -0.0001603310407691 -0.0001205393569521  0.0000347327333452
 -0.0000220776585366 -0.0000203416086879  0.0000306823212391
 -0.0001668800797579  0.0001061556617411  0.0001284540502047
 -0.0000386155342710 -0.0000377563026527 -0.0001175022567207
  0.0000915164222895  0.0001505187879651 -0.0000413245903507
 -0.0000475208203667  0.0000263539688802 -0.0000133665071034
  0.0001695073042549  0.0001729377703400 -0.0001498591105572
  0.0000840966665480 -0.0000097613234111 -0.0000086118050205
  0.0000985891116254 -0.0000381575645362  0.0000758966394873
  0.0000934832515578 -0.0000222062561510  0.0001003100872352
 -0.0000951977667794  0.0000155614957451  0.0001113340217198
  0.0000165219401104  0.0000935500089015  0.0000909981555991
  0.0000751719992879  0.0000993826626313 -0.0001235904546911
  0.0000315946716041 -0.0000414785629340  0.0001425211863984
  0.0000899210653374 -0.0000012812672387  0.0000802832430123
  0.0000439622232508  0.0000130729901371 -0.0000776962164857
  0.0000320566252448  0.0000532967662453 -0.0000552503158270
  0.0000035752397935  0.0001690776884458 -0.0000193841073883
 -0.0001678699547801 -0.0000916657290369 -0.0000617311618302
 -0.0000844351191027  0.0001169825543885 -0.0001493745814492
 -0.0001729765326687 -0.0000937387957985  0.0001535853188535
  0.0001479227886772  0.0000642736834609 -0.0000032921419975
  0.0000276268806836  0.0001072008089728  0.0001621367192451
 -0.0000283126149902  0.0000067767317785  0.0000143623759302
 -0.0001765164664412 -0.0000583024902973  0.0000587450268827
 -0.0000171254839238 -0.0000587277991811 -0.0001457603532135
 -0.0000562132725654  0.0000221221993235  0.0000807641830158
  0.0000927492796867  0.0000586585294641 -0.0001549829161474
  0.0001590762898344  0.0001640482763041  0.0001849734733844
 -0.0000533498849920 -0.0000607362620616  0.0000612656549760
 -0.0000160237724052 -0.0001689815004451 -0.0000563679629696
 -0.0001523284144561 -0.0000199030560085  0.0000967518490297
 -0.0000037459124800 -0.0001639258878405  0.0001795392102546
 -0.0000833504917216  0.0000866973316717 -0.0000399334534449
 -0.0000458454263842  0.0000656303649635  0.0001552474331494
 -0.0000402277600142 -0.0001088306213281 -0.0000278848296244
  0.0001270029752537  0.0001714658785829 -0.0000530283012284
  0.0000974255239452  0.0001266860573260  0.0000505144924337
  0.0000705169307459  0.0000162766248175  0.0000784872551184
  0.0001715617076731  0.0000054416925761 -0.0001450464803276
 -0.0001121982780844 -0.0001144274708919  0.0001295828235713
 -0.0000603238739541 -0.0000376945700552 -0.0001769116268471
  0.0001105167826242 -0.0000775673676340 -0.0001415492568987
 -0.0001313698387039  0.0001609795919530  0.0001034814199751
 -0.0001153164920776  0.0000715857660673  0.0001748320996973
  0.0000569472444365 -0.0001505726245327 -0.0000006672575966
 -0.0000474659070678 -0.0001426611614741  0.0000246164474987
  0.0001453285839416 -0.0000726291187467 -0.0000483538515222
  0.0001424063350543  0.0001170012177319  0.0001643913946947
 -0.0001123210254584  0.0000185397705537  0.0001325054313691
  0.0001205989360869 -0.0000862691515044  0.0000630358013174
  0.0001509616834609  0.0000067878580025 -0.0001634298735980
 -0.0001049902795086  0.0001433667794196 -0.0000849871233755
 -0.0001583588278440  0.0001573969478369  0.0001499118703934
  0.0001326834509525 -0.0000421845397899 -0.0000351665125156
  0.0000921010874132  0.0001208731436710 -0.0001331884379562
  0.0001453555022254  0.0000129691214527  0.0000027572326295
  0.0001684890753071 -0.0001390882079402  0.0001821721773189
 -0.0000236208658002 -0.0000264299143315 -0.0000343471199573
 -0.0000148505659249 -0.0001726262360691  0.0000439209485490
 -0.0000863570845647 -0.0000463920470002  0.0000970709204202
 -0.0001162833968310 -0.0001069937176429  0.0001636750094356
 -0.0001006801239096 -0.0000922536243546 -0.0000846680519850
  0.0000917393056792 -0.0001180793847249  0.0001095010660495
 -0.0001109797771052 -0.0000829298486737 -0.0000576603995015
  0.0000367283831227  0.0000490286031690  0.0001556242891223
  0.0000883436539078  0.0001535932148834  0.0001364534463237
  0.0000078466797223  0.0000112249243368 -0.0000946680149546
  0.0000224548734200  0.0001030880541214  0.0000665075421043
  0.0000657373202777  0.0000321836436532  0.0000872234943920
 -0.0001779535438846 -0.0001075744347516 -0.0000984451885348
  0.0000854393505430 -0.0000858775802030  0.0000715505928432
  0.0000947774826420 -0.0001852950571479  0.0000389769570945
  0.0000922162976678 -0.0001362603525013 -0.0001366648445790
  0.0001487970945344  0.0001485641616521 -0.0000212697870037
 -0.0000863592380274 -0.0000839764315471 -0.0001185459683105
  0.0000829872743457 -0.0000305111568453  0.0000335091358376
 -0.0001351351682393  0.0000576108698594  0.0001373263165391
  0.0000667437051807  0.0001460148207228 -0.0001347640548335
 -0.0000400820423714  0.0001495920811821  0.0000925608517002
  0.0000487662396297  0.0000388599522877  0.0001763502909026
  0.0000067353494036 -0.0000408465216308  0.0001698414498843
  0.0001820278953178 -0.0001255113434218  0.0001047867772832
 -0.0000905692576108  0.0000123517236959 -0.0001476923681681
 -0.0000242341001958 -0.0001067586312978  0.0000961556987716
 -0.0001615649748976 -0.0000376712408759 -0.0001503152857397
  0.0000874797564536 -0.0001263770354282  0.0001662519864696
  0.0001123666070856 -0.0000262526125690  0.0000238277058928
  0.0000372208082606 -0.0000771610810041  0.0001137634865587
 -0.0000534299220224  0.0000530193284672  0.0000240633664946
 -0.0000197942702510  0.0000085427506498  0.0001134020637351
  0.0000778620331138  0.0000193949823749 -0.0001029269033292
 -0.0000035957443475  0.0001690109311020 -0.0000438330154887
  0.0001580325782446  0.0001550676190137  0.0000832069275414
 -0.0001193599772120  0.0000464132227168  0.0000277971836924
 -0.0000828379675984 -0.0000646835591953 -0.0001784761175004
  0.0001078902759480 -0.0000277510995905  0.0000394105209186
  0.0000726700345380  0.0000446351803454  0.0000876818230372
 -0.0001461275186042  0.0001122065330247 -0.0000737679416058
 -0.0000553159964394  0.0001311480320456  0.0001744789318141
 -0.0000331827785651 -0.0000369964892291 -0.0001303788869503
 -0.0001149622474631 -0.0001815372647321  0.0000130112216486
  0.0001234397123019 -0.0001830500722806  0.0001536983756454
 -0.0001449345002670  0.0000756701669931  0.0001625562855617
  0.0000867637301050 -0.0001085420573260  0.0000709390094356
  0.0000400881438490 -0.0000935202193342  0.0001770390400570
 -0.0001045638938935  0.0000062796766957  0.0000605097895674
  0.0000652359223785  0.0000046431886060 -0.0000523783144027
  0.0000657003525013  0.0001463755257255  0.0000795639864696
  0.0000101184034182 -0.0001564562435464  0.0000895269816628
 -0.0001792481338793  0.0000488602741677 -0.0001174494968845
 -0.0001199396175895  0.0001618119052875 -0.0001487088025636
  0.0000585605469112 -0.0000649552544063  0.0000062303982909
  0.0001069176286274  0.0000598587260103 -0.0000660492134591
  0.0000238805016201 -0.0000403838860602 -0.0000889778486737
 -0.0000288244212925  0.0001704713377248  0.0000304802187645
  0.0000889204230016 -0.0000143102621328 -0.0001317427466619
 -0.0000291586028129  0.0000318488878761 -0.0000607484650169
  0.0000010418632010 -0.0000438900822503  0.0001478682342888
  0.0001161046594267 -0.0000193183549938  0.0000631362962435
  0.0000117692838170 -0.0001667314908314  0.0001424027459498
 -0.0000722274979526  0.0000366264525547 -0.0001127305422824
 -0.0000582497304611  0.0001249248837458  0.0000332376200819
  0.0000493056820367 -0.0000284630343600  0.0001258541029019
  0.0000874811920954 -0.0001026785372975  0.0000127872256365
  0.0000114661839416 -0.0001474163660317  0.0000870709574506
  0.0001798805340929 -0.0000600274139220 -0.0000807641830158
 -0.0000364469973295 -0.0001154198582873 -0.0001162816022788
  0.0001559275684529 -0.0001617645291081 -0.0000190381177141
  0.0001693188762685 -0.0000739904660851  0.0000795158924693
 -0.0000672673555279  0.0001321824119637  0.0000251903453089
 -0.0000697861890689  0.0001669586811465  0.0001582034196190
 -0.0000284282559373 -0.0001107443318497 -0.0000574834566495
  0.0000927995271497  0.0001698296058394 -0.0001599714124978
 -0.0000487091728681  0.0001439040683639  0.0001796353982553
  0.0000718556667260 -0.0001276450660495  0.0000346903819121
 -0.0000037032739185 -0.0001776441630764  0.0000720781912053
 -0.0001681818479615  0.0001395185415702 -0.0001179153626491
  0.0000853029645718  0.0001738748855261 -0.0001036346747374
  0.0001554839551362  0.0000517121766067 -0.0000295559166815
  0.0001624464589639 -0.0001690496934307 -0.0001067162798647
 -0.0001419383158270  0.0000296758645540 -0.0000610201602279
  0.0001790227381164  0.0001346732504896 -0.0001075808951398
 -0.0000637719266512  0.0000775016870215 -0.0000989315121951
 -0.0000538570254584 -0.0001840769150792  0.0000602617824461
 -0.0000893722912587  0.0000419376094000  0.0000388355463771
 -0.0000947423094178  0.0000017884400071  0.0001768699932348
 -0.0000215109389354  0.0000092011000890 -0.0001432921260459
  0.0001576847940182  0.0001530232650881  0.0000507014847784
 -0.0000704010026705  0.0000596728103970  0.0000940880156667
  0.0001485171443831 -0.0001691347552074 -0.0000792686031690
 -0.0001000753598006 -0.0001576919722272  0.0001381492982019
  0.0000176360699306 -0.0001729697133701  0.0001098761274702
 -0.0000151476002136 -0.0000519914089372 -0.0001502029467687
  0.0001445156517714  0.0001386205476233  0.0001291341855083
  0.0000685088267759 -0.0001316724002136 -0.0000889753363005
  0.0000131360507032  0.0001612423144027  0.0001349804778351
  0.0000830540316895 -0.0000058937043974 -0.0000145601355884
 -0.0001697804351077 -0.0000652836574684 -0.0000347309746840
  0.0001075808951398 -0.0001131002200463  0.0001596803361225
 -0.0000404718191205  0.0001700779718711 -0.0000037711797757
  0.0000113449439915  0.0000060022389176  0.0001458263927363
  0.0001256312195122  0.0001257571970803  0.0001407700623108
 -0.0001227412725654 -0.0001756080640912 -0.0000369785437066
 -0.0000493211151860  0.0000863822082962  0.0001421414591419
 -0.0000840381641446 -0.0001499527861848 -0.0001778842741677
 -0.0001675673932704 -0.0001228654555813  0.0000176600451487
  0.0000991892098985 -0.0001761431995727  0.0000939713697703
  0.0000125569128004 -0.0000767307473740  0.0000403318440449
 -0.0001465887185330  0.0000321086313691 -0.0000781301392202
  0.0000432024098273  0.0000223023005875 -0.0001788120576820
 -0.0000567631233755 -0.0000878034936799 -0.0001571830372085
  0.0000698418201887 -0.0000085531231618 -0.0001546659982197
  0.0000089374444721  0.0000823419533559  0.0001734872622396
  0.0000964137553854 -0.0000764367997152 -0.0001325133273990
  0.0001683358205448 -0.0001574267374043 -0.0001547858743101
 -0.0001810968816094  0.0000170164469290  0.0000953262567207
  0.0001436905166459  0.0001533193662097 -0.0000821409635036
 -0.0001676829624355  0.0001245071119815 -0.0000524719900303
 -0.0000474820580381 -0.0000525057276126 -0.0000281316882322
 -0.0000049100026349 -0.0000067053085989 -0.0001421385878583
 -0.0001791397429233  0.0000448677543173 -0.0000216636194410
 -0.0001312122770162 -0.0001154087320634  0.0000697165604415
 -0.0000533613701264  0.0001119768303365  0.0000837291422468
 -0.0001120198995905 -0.0000330228839594  0.0001844311596938
 -0.0000362761559551 -0.0001688605476233  0.0001479497069610
  0.0000204912384547 -0.0000294698858465  0.0000037163382589
 -0.0001466220972049 -0.0001635131408225  0.0001802674395585
  0.0001047498095069  0.0001465919487271  0.0000676427758590
  0.0001551124828200  0.0000151021262596  0.0000605514231796
  0.0000309890102190  0.0000051431867545 -0.0000486165739719
  0.0001093011529286 -0.0000536991048602  0.0000044084611714
  0.0001642219889621  0.0000936329172156  0.0000271064246395
 -0.0000056958729571 -0.0000667304254940  0.0001194547295709
 -0.0000927212846715 -0.0000003087064155 -0.0000087787342710
 -0.0001504950998754  0.0001175568111091  0.0000094167693787
 -0.0000271267030799 -0.0001484694092932 -0.0000765057105216
 -0.0000507388114652 -0.0000053165405020 -0.0001748633249065
 -0.0001607829090262 -0.0000458436318319 -0.0001781997564536
  0.0000056696366032 -0.0000569124301228  0.0000461688047000
  0.0000778792608154 -0.0000537820131743  0.0000719730304433
 -0.0001106126117144 -0.0001226974854905 -0.0000824801338793
 -0.0000253128055546  0.0000245118968845  0.0000707355072103
 -0.0000929262225387 -0.0001571729877159  0.0000914406921844
 -0.0001523876346804  0.0000782424781912 -0.0000682981463415
 -0.0001542729912765  0.0001651407997152 -0.0000793335659605
 -0.0000956665038277  0.0001702226127826 -0.0001295903606908
 -0.0000084462037387  0.0000908657176429 -0.0001024179683105
  0.0001483082585010 -0.0000282565890689 -0.0000566816507032
  0.0000533078924693  0.0000390480213637  0.0000472229246929
 -0.0000983755599074 -0.0000720107160406  0.0001218870656934
 -0.0001149504034182  0.0000157369311732  0.0001384730354282
 -0.0000180747302831  0.0000565904874488  0.0001523923005163
 -0.0001792057824461  0.0000312147648923 -0.0001273679871818
  0.0000867788043440  0.0001469652155955  0.0001304266220402
 -0.0001206994310130  0.0001750230400570 -0.0001650431760726
  0.0001736114452555  0.0001225083396831 -0.0000428323731529
  0.0001768897333096  0.0000769450169129  0.0000391847662453
 -0.0000696135531422  0.0001435591554210 -0.0001392170567919
 -0.0000134175800605  0.0001723444913655  0.0001053929770340
 -0.0001278011920954 -0.0001246111960121 -0.0001073651899591
 -0.0000939153797401  0.0000203836371017  0.0000784962278797
 -0.0000443351312088 -0.0001166911191027  0.0000659174933238
  0.0000125393261884 -0.0000073270132811  0.0000006066232651
  0.0001799160662275  0.0001710918938935 -0.0001317933530354
 -0.0001482131472316  0.0001167402898344  0.0001618363111981
  0.0000368672814670 -0.0001744286843511  0.0000630429795264
 -0.0000905545422824 -0.0001055552045576 -0.0001316067196012
  0.0000631599843333 -0.0001851479038633 -0.0000427437222717
 -0.0001594908314047  0.0001235104176607  0.0000001179078255
  0.0000008942648674  0.0000319221773901  0.0000750384846003
 -0.0000838436346804 -0.0001669931365498  0.0001270822944632
 -0.0000865709951932  0.0000140808824639  0.0000619605056080
 -0.0000278041465551  0.0001524866939647  0.0001668337803098
  0.0000309595436710 -0.0001246194509525  0.0001229232401638
  0.0001351405518960 -0.0000179057911341  0.0000645712202243
  0.0000249801314581 -0.0001851148841018  0.0001432881780310
 -0.0001656235342710  0.0000415636247107 -0.0000406067694499
 -0.0000388761032580 -0.0000368130859890  0.0000325085293929
 -0.0001522487363361 -0.0001425448744882  0.0001518560883034
 -0.0000645999330604  0.0000444919750757 -0.0001265823322058
  0.0001451344133879 -0.0000481830101478 -0.0000558819982197
 -0.0000213526594267  0.0001124437728325 -0.0000990725640021
  0.0001327304682215  0.0000159047576998  0.0000371752266334
  0.0001230093786719 -0.0001153347965106 -0.0001459645732597
  0.0001642639814848  0.0000682015994303 -0.0000956410211857
  0.0001028160000000  0.0001510826362827 -0.0000608396282713
 -0.0000692198283781 -0.0001801629966174  0.0001020838226811
  0.0001340853551718  0.0001424249983977  0.0001569328766245
  0.0001659845981841  0.0001333535367634 -0.0000120484443653
  0.0000437877927719  0.0000030783713441 -0.0000563740644472
  0.0001131063215239 -0.0000141267871106  0.0000303557127292
 -0.0001776287299270 -0.0001289590372085 -0.0001364466270251
  0.0001622408032758  0.0000256084042015 -0.0001266835449528
 -0.0000929578066584  0.0000446211828378 -0.0001462592387395
 -0.0000403128217910 -0.0000768294477479 -0.0001541337340217
 -0.0001774984454335 -0.0001298394445434  0.0000405845170020
  0.0000826822004629 -0.0000422322748798 -0.0001084907331316
 -0.0000154515614741 -0.0000474913897098 -0.0001180122684707
 -0.0000790327990030 -0.0000250999716575  0.0000396316097561
  0.0001394474773011  0.0000544689677764 -0.0000762738543707
 -0.0001699598903329 -0.0001595191853302  0.0001028432771942
  0.0001155662937511  0.0000617304440093 -0.0000162183018693
  0.0000832313334520  0.0000550421477657  0.0000614343428877
 -0.0001054536329001  0.0000250215856151 -0.0001284795328467
  0.0000297052234289 -0.0000235489760370  0.0001770322207584
  0.0001482282214705  0.0000881541491900 -0.0000213495727969
  0.0000339587429589 -0.0001172485070322 -0.0001698608310486
 -0.0000825382773723 -0.0001406537753249  0.0001651967897454
 -0.0000905638739541  0.0001038672487093  0.0000149628331138
  0.0000545073711946  0.0001128382154175 -0.0000467764400926
 -0.0000095354251736  0.0000454079145451 -0.0000730199722272
  0.0000995413010504 -0.0001035693530354  0.0000150565446324
  0.0001686050033826 -0.0000198662317963 -0.0000144243597650
 -0.0000792226626313  0.0000729769029731  0.0001830931415346
  0.0001192558931814 -0.0000131256423002  0.0000561730745950
 -0.0001481894591419  0.0001553360840306 -0.0001549707131921
 -0.0000005683741784 -0.0000809185145095  0.0001449373715506
  0.0001570671091330 -0.0000050468551896 -0.0000250576202243
  0.0001650675819833  0.0000608518312266 -0.0001744053551718
 -0.0001348821363717 -0.0000736211472316  0.0000766266633434
 -0.0000553669617233  0.0000043530812889  0.0001847448474275
  0.0001239497240520 -0.0000101399739363 -0.0001636516802564
 -0.0001784136670821 -0.0001679036923625  0.0001584499910985
  0.0000986454605661 -0.0001858438312266 -0.0000559566515934
 -0.0001765193377248 -0.0001044163816984  0.0000225384636639
 -0.0000831071504362  0.0001594624774791  0.0001705775752181
  0.0001378815510059  0.0000327890179099  0.0000353026472494
  0.0000602757799537 -0.0000876086053053 -0.0001692323788499
 -0.0001127678689692  0.0001772220843867 -0.0000896199394695
  0.0001305170674737  0.0000659149809507 -0.0001772274680434
 -0.0000871825786007 -0.0000392167092754  0.0001752477179989
  0.0001028773736870  0.0000881405105928  0.0001112952593911
  0.0000941440056970  0.0001244349709810 -0.0001644861470536
  0.0000373245333808 -0.0001596867965106 -0.0001559361823037
 -0.0001582820210077 -0.0000095895129785 -0.0000423270272387
 -0.0000965250176251 -0.0000156993532491 -0.0001042319017269
 -0.0000200965805234  0.0000407115713014 -0.0001152508114652
 -0.0000509049870037  0.0001234813459142 -0.0001241851693075
 -0.0001061642755920  0.0001330570767314  0.0001187760299092
 -0.0001750923097739  0.0001364279636817  0.0001606759537119
 -0.0001049324949261  0.0000207425116610 -0.0000987552871640
 -0.0000092849774613 -0.0001277448431547  0.0001828519537119
  0.0000842007505786 -0.0000855699939469  0.0001284705600855
 -0.0001258695360513 -0.0001636534748086  0.0000106048347516
 -0.0001461031126936  0.0001561928032758  0.0000039601461278
 -0.0000665879380452 -0.0001353939426740  0.0001829675228770
 -0.0001664759465907 -0.0000365047819121  0.0000999271297846
  0.0000428316553320  0.0000026679859569 -0.0000145929400036
  0.0000090011869681  0.0000583161288944 -0.0000608726480328
  0.0001014410140644  0.0000534205903507 -0.0001704788748442
  0.0001188058194766  0.0000928375716575  0.0001689667851166
  0.0000864984952822 -0.0001829818792950 -0.0001611016215061
 -0.0000499789980417 -0.0000140342241054  0.0001253936207940
  0.0000205659995015  0.0001311846409115  0.0000571600783336
  0.0000101440296244 -0.0000907490717465  0.0000049706943920
  0.0001180330852768 -0.0001145613444899  0.0000730048979882
  0.0000648213808083 -0.0000232136460032 -0.0000305311481574
 -0.0001585842236069  0.0000211215569877  0.0000634618280221
  0.0000089179915257  0.0001206843567741 -0.0000200478763753
 -0.0000018452016949  0.0000074040354638 -0.0000333573526082
 -0.0001799332939291 -0.0001483933202777  0.0001044630400570
 -0.0000560732974898 -0.0001819869795264  0.0001267061563112
  0.0001667383101300  0.0000196432407335  0.0000522641808795
 -0.0001016229816628  0.0001302008673669 -0.0000423970147766
 -0.0001778207470180 -0.0000636100580381 -0.0000323099442407
 -0.0001066430621328  0.0001245498223251 -0.0000617541320990
 -0.0001013846651237  0.0001181192237849 -0.0000392217340217
 -0.0001359391276482  0.0000604042698950 -0.0000290571388286
  0.0001456139177497 -0.0000267533285384  0.0000086324423714
 -0.0000615836496350 -0.0000309495659605 -0.0000304052064803
  0.0001325039957273 -0.0001374461926295  0.0000213050679010
  0.0000042856420153  0.0000563399679544 -0.0000400802478191
  0.0000476087534271 -0.0000615337610824  0.0001729876588926
  0.0001001148399502  0.0000425452447926  0.0000257421701264
  0.0000738451073527  0.0000738698721738 -0.0001483319465907
 -0.0001794882449706  0.0000318355722984  0.0000805028962079
  0.0000832424596760 -0.0001208150001780  0.0001516166950329
 -0.0000700309659961  0.0000661414534449 -0.0000201149567385
 -0.0000334284527684 -0.0001481693601567 -0.0001485142730995
  0.0000414347758590 -0.0001055351055724 -0.0001567979262952
 -0.0000335216977034  0.0001103617333096 -0.0000355510850632
 -0.0001629378073705 -0.0001011703955848  0.0001562656620972
 -0.0000916090211857  0.0000686042969557  0.0000994720313335
  0.0000648511703756  0.0001148179654620 -0.0000052829464839
  0.0001684503129785 -0.0000603856065515  0.0001112647520028
 -0.0000531029546021  0.0000707620665836 -0.0001524360875912
 -0.0001324487235179 -0.0000765850297312 -0.0000663108591775
  0.0000114896566851 -0.0001181902880541  0.0000694265607976
 -0.0001768466640555 -0.0001327408766245 -0.0001489769086701
 -0.0000620872009970 -0.0000924298493858 -0.0001260701669931
 -0.0000100964380986  0.0001122427829802  0.0001707627730105
 -0.0000423212846715  0.0001290103614029  0.0000364599181058
  0.0001513941705537 -0.0000258554781556  0.0001247870621328
  0.0000523072501335  0.0000183043611892 -0.0001722863478725
  0.0000553906498131 -0.0000155097408581  0.0001611956560442
 -0.0001353167769272 -0.0000717422510237 -0.0001170765889265
 -0.0000593024148122 -0.0000354335059996 -0.0001566418002492
  0.0000352066028129  0.0000381521808795 -0.0000364979626135
 -0.0000080056770518 -0.0001747359116966  0.0000092273005519
  0.0000753234594980  0.0000873257838704 -0.0000688881951220
  0.0001499937019761  0.0001760233234823 -0.0001503332312622
  0.0001461332611714 -0.0000615107908136 -0.0001761855510059
 -0.0001077140509169  0.0000159250361403  0.0000130131238740
  0.0001554703165391 -0.0001785016001424 -0.0000971197322414
  0.0000863875919530  0.0001449388071925  0.0000371551276482
  0.0001532224603881  0.0000222127883212  0.0001423481915613
  0.0001016610261706  0.0000979570703222  0.0000235975725120
 -0.0001784592487093  0.0001578714274524  0.0000937750457540
 -0.0000003698859320 -0.0000318795029375  0.0000447241901371
 -0.0000965365027595  0.0001588343841908 -0.0001586211913833
  0.0000009932774933 -0.0001300651992167 -0.0001035427936621
 -0.0001258619989318 -0.0000373747808439  0.0000865494605661
  0.0001780396823927  0.0000481532205804  0.0000491675015133
  0.0000787302374933  0.0000048867452377  0.0000238511427452
  0.0000657721345914 -0.0001104801737582  0.0000043424934307
  0.0001509006686844  0.0000822952949973  0.0001173500786897
 -0.0000342500346804 -0.0000786990122841 -0.0001672834951041
  0.0001372943735090  0.0000242155804166 -0.0001620017689158
  0.0001600266847071  0.0000678782211145 -0.0000504918810753
 -0.0000033818337191  0.0001117708157379 -0.0000930008759124
 -0.0000803252355350  0.0001634022374933 -0.0000807412127470
 -0.0000162218550828  0.0001545479166815  0.0001109187623286
 -0.0000224309699840 -0.0001145792900125  0.0001370262674025
  0.0001399011401104  0.0000093543548513 -0.0001246305771764
  0.0000796695061421  0.0000853054769450 -0.0000557578152038
 -0.0001260450432615  0.0001722662488873 -0.0001164327035784
  0.0001692908812533 -0.0001752810966708 -0.0000236230192630
  0.0001720846401994  0.0000269877329535  0.0000468047940182
  0.0001753489307459  0.0001115138358554 -0.0000282192982731
 -0.0000161556361047  0.0001713704084031  0.0001711195299982
  0.0001124900722806 -0.0001421184888731  0.0000174670948905
  0.0001435950464661  0.0000093009130853  0.0000733656029909
 -0.0000818915207406  0.0001395641231974 -0.0000827590072993
  0.0000379712900125  0.0001238869147232  0.0001166785572370
 -0.0000002922833911  0.0001766980751291 -0.0001346387950863
 -0.0001301111397543  0.0001322994167705  0.0001684424169485
  0.0000397389239808 -0.0001172912173758 -0.0001544818771586
  0.0001795765369414 -0.0000533778800071 -0.0000790995563468
 -0.0001813990842087  0.0000513460879473  0.0000283079850454
  0.0001017084023500  0.0001622659270073  0.0001785618970981
 -0.0000755370112160 -0.0000700507060709 -0.0001741038703934
 -0.0001804368452911  0.0001581499419619  0.0000228847045754
 -0.0001077994716041  0.0000442475570589  0.0001463866519494
  0.0000467082471070  0.0001473772447926  0.0001164915648923
  0.0001445156517714  0.0001416763111981 -0.0000118787515044
 -0.0000256850674737 -0.0000232056423002  0.0001039253922022
  0.0000377408695033 -0.0000978099170376  0.0000277455364785
  0.0001443588079046  0.0000622950101478 -0.0000278099967954
 -0.0000762472949973  0.0000449962442585 -0.0000502212625957
  0.0001625419291437 -0.0000219754408403 -0.0000380161538188
  0.0000432953676340  0.0001230854676874  0.0001621668677230
  0.0001181741370839  0.0000644481139398  0.0000055934399145
 -0.0000070848564002 -0.0000377128744882 -0.0001196812020652
 -0.0000093521654976 -0.0001612290347160 -0.0001453346854193
  0.0001598569200641  0.0001349445867901  0.0000653374940360
  0.0001213067074951  0.0001201506569343  0.0001404172533381
  0.0001546975823393 -0.0000167220685775 -0.0001274017247641
 -0.0001130158760904  0.0000236459177497  0.0001248574085811
  0.0001390164258501  0.0001146324087591  0.0001635522620616
  0.0000262903699484 -0.0000770157222717  0.0000013101954210
 -0.0000474009442763 -0.0001504631568453  0.0000124872841730
  0.0000830859747196  0.0001661181128716 -0.0000911259277194
  0.0000243399069966  0.0000112647275058 -0.0001560546227524
  0.0000407417197792 -0.0000657287064269  0.0001528377083853
  0.0000026495738508 -0.0000493537760370 -0.0000101740704291
  0.0001376974299448 -0.0001405486145629  0.0001083249165035
 -0.0001587909560263 -0.0001624967064269  0.0000929395022254
 -0.0001631000348941  0.0000940668399502  0.0000113130009614
  0.0000689632074061 -0.0001675063784939 -0.0000996417959765
  0.0000620703322058  0.0001273967000178 -0.0000618887235179
 -0.0001729919658181  0.0000147499633256 -0.0000148011080648
  0.0001629593419975  0.0000505600740609 -0.0000353327957273
 -0.0001462897461278 -0.0000583674530888  0.0000631111725120
 -0.0000445939056436 -0.0000832600462881 -0.0001279257340217
 -0.0001544962335766  0.0000711834274524 -0.0000135040415880
  0.0000496599266512  0.0000829901456293  0.0001115809521097
  0.0001498838753783  0.0001583785679188 -0.0001515481431369
  0.0001821355684529 -0.0001427523247285 -0.0000469174918996
  0.0001791329236247  0.0001575577397187 -0.0000666428513441
 -0.0000908061385081  0.0000512563603347 -0.0000228201365854
  0.0001531417055368  0.0001245261342354 -0.0000941784611002
 -0.0001534187844045 -0.0000811474993769 -0.0000503257055368
 -0.0001285495203845  0.0000804458294463  0.0000783634310130
 -0.0000818509638597  0.0000908140345380  0.0001285689015489
  0.0000631334249599  0.0000978149417839 -0.0001787043845469
 -0.0000750503286452  0.0000735475705893 -0.0000889168338971
 -0.0001012134648389  0.0000751228285562  0.0000931936108243
  0.0000872141627203  0.0001589463642514 -0.0001043693644294
 -0.0001422534392024 -0.0001524224489941 -0.0000470484942140
  0.0001648755648923  0.0001178030236781  0.0001276727021542
 -0.0000270188863806 -0.0001624346149190  0.0000428941057504
 -0.0001741228926473 -0.0000014317583906  0.0001075152145273
  0.0001112866455403  0.0000804447527150  0.0000603615595514
  0.0001281540010682  0.0001630110251024 -0.0000827220395229
 -0.0000712896649457  0.0000960049563824  0.0000816995036496
  0.0001112162990920 -0.0000026971869112  0.0000221615359088
  0.0001558705016913 -0.0000287131231618 -0.0000601074509525
 -0.0001812777724764 -0.0000972105365854 -0.0001232943535695
 -0.0001053010959587  0.0000363314281645  0.0000436104910094
  0.0001749512579669 -0.0000015021479081  0.0000200998824996
 -0.0001639384497062 -0.0001219111126936 -0.0000152035543529
 -0.0000271004667260 -0.0000726065073883 -0.0000318615933060
  0.0001244529165035  0.0000445203290012 -0.0000128979495104
  0.0000100954690404 -0.0001762609222005 -0.0000577070578601
 -0.0000142091929500  0.0000159648393092 -0.0000489395933772
  0.0001575114402706  0.0001603899020830  0.0000576069218444
 -0.0001548953419975 -0.0000658568374577 -0.0001752258244615
 -0.0000479902752359  0.0001715968808973 -0.0000413719665302
 -0.0001182495082784  0.0000781505971159 -0.0001489955720135
 -0.0000146097011216 -0.0001417868556169  0.0001097042093644
  0.0000174356184440  0.0001106312750579  0.0001123167185330
  0.0000962167135482 -0.0001041899092042  0.0001729194659071
  0.0000541028791170 -0.0001140341050383  0.0001678215018693
 -0.0001671058344312 -0.0000326520217910 -0.0001561203033648
  0.0000325310689692 -0.0000078336153819 -0.0001139874466797
 -0.0000016409457575  0.0001533609998220 -0.0001146582503116
  0.0000447762321524 -0.0001853743763575  0.0001676499426740
 -0.0001291603859712  0.0000441039928788 -0.0000705187252982
  0.0001404172533381 -0.0000785026882678 -0.0001551397600142
  0.0000773394594980  0.0000067269508991 -0.0000915810261706
  0.0000412542439024  0.0001502621669931  0.0000318091564892
  0.0001457233854371 -0.0000099601239096 -0.0000625616806124
 -0.0001598142097205  0.0001679876774079 -0.0000737141050383
  0.0001196309546021  0.0000790934548691 -0.0000092205889265
  0.0000933974719601 -0.0000048627700196  0.0001472566508813
  0.0000589829845113  0.0000948600320456 -0.0001713729207762
  0.0000665294356418 -0.0001647711219512 -0.0001477228755563
 -0.0001685597806658 -0.0000027957508991 -0.0001735102325085
 -0.0000609167940182 -0.0001415194673313 -0.0001423934142781
 -0.0000788974897632  0.0000571030115720  0.0000007772349368
  0.0001255920982731 -0.0001655277051807 -0.0000780623051451
  0.0000852871725120 -0.0000887951632544 -0.0000293413600142
  0.0001165195599074  0.0000106164634502 -0.0000945829531779
 -0.0000104437198505  0.0001187247057148 -0.0000891935538544
 -0.0000040720544063 -0.0001669457603703 -0.0001731107651771
  0.0000742312949973 -0.0000082904007121 -0.0001217036624533
 -0.0000310535782090 -0.0000426432273456 -0.0000784061413566
  0.0001533976086879  0.0000479683816984 -0.0001348598839238
  0.0001695284799715  0.0001642223478725  0.0001858100936443
  0.0001272674922557 -0.0001269771337013 -0.0000594068577532
 -0.0000966003888197  0.0001783124543351 -0.0000252886508813
 -0.0000654157365142 -0.0001548709360869  0.0000685773786719
  0.0001559236204380  0.0001330994281645  0.0001010763610468
 -0.0000021154648531 -0.0001522742189781 -0.0001150663314937
  0.0001294353113762  0.0001481851522165  0.0001799917963326
 -0.0001434629674203 -0.0000269513035428 -0.0000317602011038
  0.0000027680214777  0.0001153157742567 -0.0000421181413566
  0.0001276102517358  0.0001550170126402 -0.0000397920427274
  0.0001400526003205  0.0000004357926580  0.0000865648937155
  0.0000719374983087  0.0001559325931992  0.0000087279125512
  0.0000825318169842 -0.0000139683999288  0.0001360166523055
 -0.0000307941577354 -0.0000654929022610  0.0000982323546377
  0.0000468482221827 -0.0000587414377782 -0.0000096084275592
  0.0001489151760726 -0.0000547639921666 -0.0000001583896941
  0.0001050186334342 -0.0000834822118569  0.0001534291928075
  0.0000793088011394 -0.0001332272002848  0.0000795417340217
 -0.0000009371977354 -0.0000709835143315 -0.0001442934862026
  0.0001267998319388  0.0000445142275236 -0.0001197314495282
 -0.0001200576991276  0.0000046970251736  0.0001222255182482
  0.0000923379683105  0.0000822346391312 -0.0001729593049671
  0.0000670620587502  0.0000207065847249  0.0000277761156489
 -0.0000722271390422  0.0000413999615453  0.0001312747274346
 -0.0001090560170910  0.0001051008239274 -0.0000685540494926
 -0.0000741964806836  0.0001777066134947  0.0000177772294107
 -0.0001225209015489 -0.0001256373209899  0.0001765771223073
  0.0001668090154887  0.0001126666562222 -0.0000095569956917
 -0.0000827378315827  0.0001588566366388 -0.0001466967505786
 -0.0000890492718533 -0.0000043433189247  0.0001125417553854
 -0.0001356717393626  0.0001707419562044 -0.0001684151397543
  0.0001068465643582 -0.0000379407826242  0.0000689459797045
  0.0001450594011038  0.0001484956097561 -0.0000774632836033
 -0.0000740618892647 -0.0001121469538900  0.0001109901855083
  0.0000798590108599 -0.0000136918235357  0.0000362858465373
  0.0001480053380808 -0.0000104395205982 -0.0000849146234645
 -0.0000368636923625 -0.0001791031340573  0.0000170903465907
  0.0000203516222895 -0.0001850323346982  0.0000727626334342
  0.0000094518708207 -0.0000368794844223  0.0000099833813067
  0.0000001493577127 -0.0000702470300872  0.0001768341021898
  0.0001022047755029  0.0001052311084209 -0.0000732101947659
 -0.0001752502303721  0.0000416741691294 -0.0000050772190137
 -0.0000259960992701 -0.0001376410810041  0.0000311649481218
 -0.0000899214242478 -0.0000540820623108  0.0001410317080292
 -0.0001103847035784  0.0000561554879829  0.0001452704404486
 -0.0000852968630942 -0.0001192322050917  0.0000924194409827
 -0.0001392095196724 -0.0001252927669575  0.0001263109959053
  0.0000995876004985 -0.0000579109189959  0.0000662735324907
  0.0001529306661919 -0.0001353415417483 -0.0000289227986470
 -0.0001528976464305 -0.0000898399515756 -0.0000550575809151
 -0.0000413992437244 -0.0000806525618658 -0.0001322509638597
 -0.0001725332782624  0.0000497058671889 -0.0001478667986470
 -0.0000359409335944 -0.0000091550518782 -0.0000446976307638
 -0.0001309011016557  0.0000013419159267 -0.0000234758300872
  0.0000890234303009 -0.0001119481175004  0.0001681954865587
 -0.0000921337482642  0.0000118805460566 -0.0000323219677408
  0.0000568061926295  0.0000323447226633 -0.0001273816257789
 -0.0001425861491900  0.0001037699839772 -0.0001593655716575
 -0.0000919151717999  0.0000383581954780  0.0001413952843155
  0.0001560137069610 -0.0001770957479081  0.0001540978429767
 -0.0000045299882500  0.0001716442570767  0.0000218877231262
 -0.0000634901819477  0.0000688946555101 -0.0001302482435464
 -0.0001092196802564 -0.0000873907466619 -0.0001624055431725
 -0.0000567584575396 -0.0000108481760370 -0.0000140643008011
  0.0001290401509703  0.0000781872059818  0.0000981874908314
  0.0000228791414634 -0.0000702455944454 -0.0001644240555457
 -0.0000141986768738 -0.0001725490703222 -0.0001228597130141
 -0.0001066796709988 -0.0001282042485312  0.0001318866697525
 -0.0000541466661919  0.0000602237379384 -0.0001402884044864
 -0.0001272046829268  0.0000435946989496  0.0001346391539968
 -0.0001768538422646  0.0001178360434396 -0.0000458411194588
  0.0000042867905288  0.0000757566644116  0.0001557484721382
 -0.0000155912494214  0.0001613765469112 -0.0001601497909916
 -0.0001227592180879 -0.0001130097746128 -0.0001466335823393
 -0.0001231963710166 -0.0001566410824283 -0.0001009948883746
 -0.0000350747032224 -0.0000603472031333  0.0000251161226277
  0.0001434626085099 -0.0000282633724764 -0.0001705922905466
  0.0000372628007833 -0.0001009406928966  0.0000015496712409
 -0.0000399205326687 -0.0000579471689514 -0.0001783400904397
 -0.0001575703015845 -0.0001012665835855 -0.0000007812152537
 -0.0001366949930568  0.0001364789289656 -0.0000780511789211
 -0.0000943830400570 -0.0001707807185330  0.0000142988128894
 -0.0001488807206694 -0.0001408705572370  0.0001740654669753
 -0.0000465051037921 -0.0000627547744348  0.0001029793042549
 -0.0001540529791704 -0.0001533010617767  0.0001606239116966
  0.0001163932234289  0.0000824865942674  0.0000470420338259
  0.0001471920470002 -0.0001659899818408 -0.0001778340267046
 -0.0000558845105928  0.0000712871525725 -0.0000975960064091
  0.0001149730147766 -0.0000480538023856 -0.0000753019248709
  0.0000994006081538  0.0000854336079758 -0.0000956062068720
 -0.0000420230300872  0.0000315856270607 -0.0001029204429411
  0.0001086884927897 -0.0001235549225565  0.0001182778622040
 -0.0001512599380452  0.0000438172234289 -0.0001455238312266
 -0.0000997627487983 -0.0000110455767848 -0.0000449872714972
  0.0001147573095959 -0.0000237388755563 -0.0000932546256009
  0.0000391162143493  0.0000073895354816  0.0000881340502047
  0.0001503501000534 -0.0000425592423002 -0.0001285832579669
  0.0001157378529464  0.0000258745363005 -0.0000366856727791
  0.0001245401317429  0.0000469508705715 -0.0000677264019939
 -0.0000426931158982  0.0000883357578779  0.0001094985536763
 -0.0001519967811999  0.0000751152914367 -0.0000344229218444
  0.0001720814100053 -0.0000276151802030  0.0001321321645006
  0.0000553852661563 -0.0001052332618836  0.0001717250119281
  0.0000651655759302 -0.0000818373252626  0.0000423115940894
 -0.0001063641887128  0.0000629920142425  0.0000027902811038
 -0.0000064938385615  0.0000344985801673 -0.0000840539562044
  0.0001819378087947 -0.0001755448958519 -0.0000705912252092
  0.0000166239424604 -0.0000182479404664  0.0001578524051985
 -0.0000859619241588  0.0000236256752003  0.0001499369941250
 -0.0001769902282357  0.0000131980345380 -0.0001677195713014
  0.0001108441089550 -0.0000493372661563 -0.0000944813815204
 -0.0001286414014599 -0.0000018181219014 -0.0001773990272387
 -0.0000497514488161  0.0001555779896742 -0.0001076419099163
  0.0000073277669931  0.0000546861085989 -0.0000805664233577
  0.0000021906027559 -0.0000936537340217  0.0001239766423358
 -0.0000555747708741  0.0001648565426384 -0.0001073217617946
 -0.0000929473982553 -0.0001450902674025  0.0001032833014064
 -0.0001579155734378 -0.0000639004165925 -0.0001636617297490
  0.0000167831910272  0.0001015361253338 -0.0000867511682393
  0.0001403544440093 -0.0000374124664412  0.0001816987744348
  0.0000590816848852 -0.0000715294171266  0.0001729693544597
  0.0001588401267581 -0.0001524626469646  0.0000083985045398
  0.0000240488665124 -0.0001326009015489  0.0000139601808795
  0.0000030823624283 -0.0000798704959943 -0.0001368044607442
 -0.0000080059641802 -0.0001795295196724  0.0001593795691650
  0.0000204947916682  0.0000302523106284  0.0001317423877515
  0.0000789384055546 -0.0001504175752181  0.0000482985793128
  0.0000803672280577  0.0001284081096671  0.0001404653473384
 -0.0001300860160228 -0.0001772342873420  0.0000212563637529
 -0.0000838073847249  0.0000745137575218  0.0000790923781378
  0.0001193090119281  0.0001493042350009  0.0000026667118248
  0.0001079426768738  0.0001252636952110 -0.0001183564635927
 -0.0000232445481930  0.0000899677236959  0.0001479328381698
  0.0001045412825352 -0.0000693314495282 -0.0001366497703400
  0.0000373841125156  0.0001112744425850 -0.0000305521085277
 -0.0001453555022254 -0.0000595629837992  0.0000571066006765
 -0.0001629162727435 -0.0001062816393092  0.0000789265615097
 -0.0001147942773723  0.0000820698992345 -0.0000172499899591
 -0.0000910649129429  0.0000841300452199 -0.0000887887028663
 -0.0001391779355528  0.0000435175332028 -0.0000679733323838
 -0.0001730282157735  0.0001325316318319  0.0000547693758234
  0.0000005244543066  0.0000252590048780 -0.0001557337568097
 -0.0000411056549760  0.0001085233939826  0.0001129950592843
  0.0001775957101656 -0.0001107669432081 -0.0000677701890689
 -0.0000468252519138  0.0000301744270607 -0.0000814970781556
  0.0000617648994125  0.0001051083610468  0.0000535171372619
  0.0001392077251202  0.0000449474324372 -0.0001388348171622
 -0.0001625458771586 -0.0000927783514331 -0.0001395479722272
 -0.0000978056101122  0.0000073387496528 -0.0000353024319032
 -0.0000012122056899  0.0000547700936443 -0.0001331701335232
  0.0000830145515400  0.0000636050332918  0.0000782683197436
  0.0001480110806480  0.0000854407861848  0.0000259534248175
 -0.0000277595698772  0.0001715164849564  0.0000697592707851
 -0.0000647643140466 -0.0001614368438668  0.0000136197902083
  0.0001258243133345  0.0000867479380452  0.0000807218315827
  0.0001107321288944 -0.0001061958597116  0.0000624748242834
 -0.0001472085568809 -0.0001638314943920 -0.0000604498515222
 -0.0000919952088303  0.0001492640370304  0.0000519027580559
  0.0000286141715506 -0.0000997081944098 -0.0001030503685241
  0.0001152511703756 -0.0001190272672245 -0.0001150182374933
 -0.0001577551404664  0.0000772181477657 -0.0001168013046110
 -0.0001812397279687  0.0001736512843155  0.0001548878048780
  0.0001249241659249 -0.0000706386013886  0.0001740586476767
 -0.0001601268207228  0.0000254033227702  0.0000784502873420
 -0.0000815182538722 -0.0001644233377248 -0.0001485763646074
  0.0000906309902083 -0.0001188808317607  0.0001524339341285
  0.0001554800071212 -0.0000166451181770  0.0000704397649991
  0.0000524127698059 -0.0000295009674915 -0.0001536405910628
  0.0000739276567563  0.0000033812379277 -0.0000791731329891
  0.0000425965689870  0.0000687123290012  0.0000924926587146
 -0.0000062639205270 -0.0001183478497419 -0.0000229744321880
  0.0001159693501869 -0.0001037739319922 -0.0001360511077087
 -0.0001266699063557 -0.0000987768217910 -0.0001555015417483
 -0.0001594147423892 -0.0000600855574150  0.0000393961645006
 -0.0001634977076731 -0.0000204497842977  0.0000386909054656
  0.0000333778463949 -0.0000193543896030 -0.0001774216385971
 -0.0000605639850454 -0.0000581693345202  0.0001064621712658
 -0.0000572268356774  0.0001545062830693  0.0001404951369058
  0.0000016315566601  0.0000061635332740 -0.0000651946476767
  0.0001421486373509  0.0001651099334164  0.0001336342047356
  0.0000980356717109  0.0001585630478903  0.0000306559413210
  0.0001201499391134  0.0000353034727435 -0.0000696487263664
  0.0001521514716041 -0.0000801235278618 -0.0000081762671889
  0.0001144432629518  0.0001776186804344 -0.0000021892353071
 -0.0000619694783692  0.0000591226006765 -0.0000217542084387
  0.0001723516695745  0.0001355532989140  0.0000705431312088
 -0.0000370068976322 -0.0000322782524479 -0.0000832008260637
 -0.0000851421726900 -0.0000756371472316  0.0001619985387217
 -0.0001538882392736  0.0000622860373865 -0.0001745374342176
 -0.0001599843332740 -0.0001332322250312 -0.0000090326275236
 -0.0000348949249777  0.0000394137511127 -0.0000165719004451
 -0.0000160568639487  0.0000053384699306 -0.0000534686843511
  0.0000041730876981 -0.0000088248901549  0.0000260048207940
  0.0001060784959943 -0.0001641196994837 -0.0001562121844401
 -0.0000500130945344  0.0001415406430479 -0.0000999012882322
  0.0000822188470714 -0.0001599800263486  0.0000274847521453
  0.0001439474965284  0.0000848762200463  0.0000363332227168
 -0.0001502384789033  0.0000440002677586  0.0000106177914189
  0.0000714253330960 -0.0000555281125156 -0.0000574568972761
  0.0001711661883568 -0.0000678032088303 -0.0000175535564180
 -0.0000801278347873 -0.0001674184454335 -0.0000847373217020
  0.0000185300440805 -0.0001220166323660  0.0000380585052519
 -0.0000071651805590  0.0000734097489763  0.0001549032380274
  0.0000188334310842 -0.0001359179519316  0.0001418076724230
  0.0001484869959053  0.0000544169257611  0.0001452690048068
 -0.0001093582196902  0.0001418629446324 -0.0001579758703934
 -0.0001088273911341 -0.0000648870614207  0.0000538405155777
  0.0000917062859177  0.0000577953498309 -0.0000495536891579
  0.0000635253551718  0.0001128296015667  0.0001730361118035
 -0.0001771057974007 -0.0001000757187111 -0.0000696824639487
 -0.0000473259319922  0.0000159424074061 -0.0000604240099697
 -0.0000238700932170  0.0001673229752537  0.0000723847007299
 -0.0001282290133523 -0.0000111197635749  0.0001691702873420
 -0.0001429113220580  0.0001158566523055 -0.0000820752828912
 -0.0001629141192808 -0.0000690662147054 -0.0000591258308706
 -0.0001216257788855 -0.0000549904646609 -0.0001525889834431
 -0.0001463568623821 -0.0000908452597472 -0.0001550345992523
  0.0000212279380452 -0.0000654986448282  0.0000039929505430
  0.0001195724521987 -0.0001710362627737  0.0001018383279331
  0.0000262681533915 -0.0000855789667082 -0.0000224355281467
  0.0000430351575574  0.0001347360598184 -0.0001477964521987
  0.0000561192380274  0.0001743655161118  0.0001060343500089
  0.0000565908463593  0.0000641085846537  0.0001422670777995
 -0.0001636200961367  0.0001141981271141  0.0001673290767314
 -0.0000428395513619 -0.0001825063229482  0.0001600887762151
 -0.0001121537731885 -0.0000971724920776  0.0001475645960477
