Si Ar
 1.0000000000000000
    21.7199999999999989    0.0000000000000000    0.0000000000000000
     0.0000000000000000   21.7199999999999989    0.0000000000000000
     0.0000000000000000    0.0000000000000000   55.4399999999999977
 Si  Ar 
 1050  39
Cartesian
  0.0000000000000000  0.0000000000000000  0.0000000000000000
  0.0000000000000000  2.7149999999999999  2.7149999999999999
  2.7149999999999999  0.0000000000000000  2.7149999999999999
  2.7149999999999999  2.7149999999999999  0.0000000000000000
  1.3574999999999999  1.3574999999999999  1.3574999999999999
  5.4299999999999997  0.0000000000000000  0.0000000000000000
  5.4299999999999997  2.7149999999999999  2.7149999999999999
  6.7874999999999996  1.3574999999999999  1.3574999999999999
  8.1449999999999996  0.0000000000000000  2.7149999999999999
  8.1449999999999996  2.7149999999999999  0.0000000000000000
 10.8599999999999994  0.0000000000000000  0.0000000000000000
 10.8599999999999994  2.7149999999999999  2.7149999999999999
 13.5749999999999993  0.0000000000000000  2.7149999999999999
 13.5749999999999993  2.7149999999999999  0.0000000000000000
 12.2174999999999994  1.3574999999999999  1.3574999999999999
 16.2899999999999991  0.0000000000000000  0.0000000000000000
 16.2899999999999991  2.7149999999999999  2.7149999999999999
 17.6475000000000009  1.3574999999999999  1.3574999999999999
 19.0049999999999990  0.0000000000000000  2.7149999999999999
 19.0049999999999990  2.7149999999999999  0.0000000000000000
  0.0000000000000000  5.4299999999999997  0.0000000000000000
  2.7149999999999999  5.4299999999999997  2.7149999999999999
  1.3574999999999999  6.7874999999999996  1.3574999999999999
  4.0724999999999998  4.0724999999999998  1.3574999999999999
  5.4299999999999997  5.4299999999999997  0.0000000000000000
  6.7874999999999996  6.7874999999999996  1.3574999999999999
  9.5024999999999995  4.0724999999999998  1.3574999999999999
  8.1449999999999996  5.4299999999999997  2.7149999999999999
 10.8599999999999994  5.4299999999999997  0.0000000000000000
 13.5749999999999993  5.4299999999999997  2.7149999999999999
 12.2174999999999994  6.7874999999999996  1.3574999999999999
 14.9324999999999992  4.0724999999999998  1.3574999999999999
 16.2899999999999991  5.4299999999999997  0.0000000000000000
 17.6475000000000009  6.7874999999999996  1.3574999999999999
 20.3625000000000007  4.0724999999999998  1.3574999999999999
 19.0049999999999990  5.4299999999999997  2.7149999999999999
  0.0000000000000000  8.1449999999999996  2.7149999999999999
  2.7149999999999999  8.1449999999999996  0.0000000000000000
  4.0724999999999998  9.5024999999999995  1.3574999999999999
  5.4299999999999997  8.1449999999999996  2.7149999999999999
  8.1449999999999996  8.1449999999999996  0.0000000000000000
  9.5024999999999995  9.5024999999999995  1.3574999999999999
 10.8599999999999994  8.1449999999999996  2.7149999999999999
 13.5749999999999993  8.1449999999999996  0.0000000000000000
 14.9324999999999992  9.5024999999999995  1.3574999999999999
 16.2899999999999991  8.1449999999999996  2.7149999999999999
 19.0049999999999990  8.1449999999999996  0.0000000000000000
 20.3625000000000007  9.5024999999999995  1.3574999999999999
  0.0000000000000000 10.8599999999999994  0.0000000000000000
  0.0000000000000000 13.5749999999999993  2.7149999999999999
  2.7149999999999999 10.8599999999999994  2.7149999999999999
  2.7149999999999999 13.5749999999999993  0.0000000000000000
  1.3574999999999999 12.2174999999999994  1.3574999999999999
  5.4299999999999997 10.8599999999999994  0.0000000000000000
  5.4299999999999997 13.5749999999999993  2.7149999999999999
  6.7874999999999996 12.2174999999999994  1.3574999999999999
  8.1449999999999996 10.8599999999999994  2.7149999999999999
  8.1449999999999996 13.5749999999999993  0.0000000000000000
 10.8599999999999994 10.8599999999999994  0.0000000000000000
 10.8599999999999994 13.5749999999999993  2.7149999999999999
 13.5749999999999993 10.8599999999999994  2.7149999999999999
 13.5749999999999993 13.5749999999999993  0.0000000000000000
 12.2174999999999994 12.2174999999999994  1.3574999999999999
 16.2899999999999991 10.8599999999999994  0.0000000000000000
 16.2899999999999991 13.5749999999999993  2.7149999999999999
 17.6475000000000009 12.2174999999999994  1.3574999999999999
 19.0049999999999990 10.8599999999999994  2.7149999999999999
 19.0049999999999990 13.5749999999999993  0.0000000000000000
  0.0000000000000000 16.2899999999999991  0.0000000000000000
  2.7149999999999999 16.2899999999999991  2.7149999999999999
  1.3574999999999999 17.6475000000000009  1.3574999999999999
  4.0724999999999998 14.9324999999999992  1.3574999999999999
  5.4299999999999997 16.2899999999999991  0.0000000000000000
  6.7874999999999996 17.6475000000000009  1.3574999999999999
  9.5024999999999995 14.9324999999999992  1.3574999999999999
  8.1449999999999996 16.2899999999999991  2.7149999999999999
 10.8599999999999994 16.2899999999999991  0.0000000000000000
 13.5749999999999993 16.2899999999999991  2.7149999999999999
 12.2174999999999994 17.6475000000000009  1.3574999999999999
 14.9324999999999992 14.9324999999999992  1.3574999999999999
 16.2899999999999991 16.2899999999999991  0.0000000000000000
 17.6475000000000009 17.6475000000000009  1.3574999999999999
 20.3625000000000007 14.9324999999999992  1.3574999999999999
 19.0049999999999990 16.2899999999999991  2.7149999999999999
  0.0000000000000000 19.0049999999999990  2.7149999999999999
  2.7149999999999999 19.0049999999999990  0.0000000000000000
  4.0724999999999998 20.3625000000000007  1.3574999999999999
  5.4299999999999997 19.0049999999999990  2.7149999999999999
  8.1449999999999996 19.0049999999999990  0.0000000000000000
  9.5024999999999995 20.3625000000000007  1.3574999999999999
 10.8599999999999994 19.0049999999999990  2.7149999999999999
 13.5749999999999993 19.0049999999999990  0.0000000000000000
 14.9324999999999992 20.3625000000000007  1.3574999999999999
 16.2899999999999991 19.0049999999999990  2.7149999999999999
 19.0049999999999990 19.0049999999999990  0.0000000000000000
 20.3625000000000007 20.3625000000000007  1.3574999999999999
  2.4009800000000001  3.2479600000000000  5.4251800000000001
 21.3662999999999990  4.1681800000000004  8.7338500000000003
  5.3847199999999997  0.2715850000000000  5.2049099999999999
  3.7867700000000002  1.6792899999999999  4.0321300000000004
  6.7369000000000003  1.4114599999999999  6.7270300000000001
  9.5685599999999997  1.3030100000000000  4.0639500000000002
  8.1752599999999997  2.6976100000000001  5.2916499999999997
 13.4818999999999996  2.7056700000000000  5.4213199999999997
 12.2626000000000008  1.3260600000000000  6.9913800000000004
 16.8765999999999998  0.4802360000000000  5.4705599999999999
 15.0700000000000003  1.2925599999999999  4.1409099999999999
  1.2487999999999999  1.5733900000000001  6.7869900000000003
 18.5764999999999993  2.3291400000000002  5.0771100000000002
 20.4481999999999999  1.2555099999999999  4.1230099999999998
  1.4888100000000000  6.6203399999999997  6.9555199999999999
  0.7248360000000000  4.6315099999999996  3.7890799999999998
  0.2336950000000000  4.3884200000000000  6.2883800000000001
  3.9204699999999999  4.3916899999999996  6.7205700000000004
  6.7479199999999997  4.0929799999999998  4.1319400000000002
  5.5327200000000003  5.6182800000000004  5.4452100000000003
  3.9926100000000000  6.7769500000000003  3.9901800000000001
  6.6959499999999998  7.0738099999999999  6.9205899999999998
  9.5186100000000007  6.8448399999999996  4.1948699999999999
  9.6251200000000008  4.0101699999999996  6.6003400000000001
 10.9690999999999992  5.5739400000000003  5.5529200000000003
 11.9440000000000008  7.1406499999999999  6.9579199999999997
 12.2321000000000009  4.1845100000000004  4.0137299999999998
 17.5491999999999990  7.1185000000000000  6.5248200000000001
 15.1379999999999999  3.7334200000000002  6.6948800000000004
 17.6258000000000017  4.1013799999999998  3.9878800000000001
 16.2479000000000013  5.4913800000000004  5.4865700000000004
 14.9640000000000004  6.8789499999999997  4.0769399999999996
 19.6336000000000013  3.8243200000000002  6.4923200000000003
 19.8417999999999992  6.2295900000000000  6.1041499999999997
 20.8279999999999994  6.3863599999999998  3.8673700000000002
  2.5877100000000000  8.0529600000000006  5.1958599999999997
  1.2667100000000000  9.5594599999999996  4.0054999999999996
  6.8714300000000001  9.4477700000000002  4.0223500000000003
  3.8639199999999998  9.3957800000000002  6.7065299999999999
  5.3942300000000003 10.7416000000000000  5.5138900000000000
  8.1637900000000005  8.2369500000000002  5.6798000000000002
  9.1192399999999996  9.9885699999999993  6.9531700000000001
 10.5934000000000008 10.6731999999999996  5.1418299999999997
 12.2492999999999999  9.4538200000000003  4.0634300000000003
 13.4789999999999992  8.1268100000000008  5.5373799999999997
 17.8431999999999995  9.2910100000000000  4.2927700000000000
 14.8552999999999997  9.4195899999999995  6.9518300000000002
 16.4307000000000016 10.6410999999999998  5.6095899999999999
 21.5565999999999995 10.8956999999999997  5.3416399999999999
 19.6164999999999985  9.6458300000000001  6.2039499999999999
  2.7506499999999998 13.6605000000000008  5.6504200000000004
  1.1640999999999999 12.1250999999999998  6.7854500000000000
  4.0606200000000001 12.2027000000000001  4.0958699999999997
  6.2248200000000002 12.6872000000000007  6.7008599999999996
  8.0157600000000002 13.6479999999999997  5.4586399999999999
  9.3327299999999997 12.3438999999999997  4.0350999999999999
 13.5616000000000003 13.3641000000000005  5.1855500000000001
 11.9292999999999996 12.0632000000000001  6.4600700000000000
 15.2752999999999997 13.6135000000000002  6.8646300000000000
 15.1271000000000004 12.0632999999999999  3.9945800000000000
 20.2855999999999987 12.3402999999999992  4.0656699999999999
 19.6158999999999999 14.3472000000000008  5.2628899999999996
  1.4654499999999999 14.9855999999999998  4.1444999999999999
 21.7154999999999987 16.9872000000000014  7.2175799999999999
  4.6521400000000002 14.4865999999999993  6.7937599999999998
  4.0433599999999998 17.5506999999999991  4.1237000000000004
  6.7557799999999997 15.0413999999999994  4.0875899999999996
  5.4666600000000001 16.3748000000000005  5.4986199999999998
  6.8914299999999997 17.7506999999999984  6.8440000000000003
  9.5425299999999993 15.0742999999999991  6.5995299999999997
  9.5045500000000001 17.6374999999999993  4.0478100000000001
 11.0075000000000003 16.3368000000000002  5.3625600000000002
 12.2524999999999995 14.9505999999999997  3.9865499999999998
 12.0291999999999994 17.7336999999999989  6.7843900000000001
 16.6316999999999986 16.7546999999999997  5.5165800000000003
 17.6448000000000000 15.0555000000000003  4.1397399999999998
 14.9207000000000001 17.7252000000000010  4.0583999999999998
 21.3587999999999987 16.0127999999999986  5.1460600000000003
 20.2452000000000005 17.7281000000000013  4.0047499999999996
  2.8836300000000001 19.0515000000000008  5.5411799999999998
  1.4119299999999999 20.3600999999999992  4.1381800000000002
  4.3415800000000004 20.5030999999999999  6.6103600000000000
  6.6939500000000001 20.3977000000000004  4.0131500000000004
  8.0660000000000007 19.0229999999999997  5.2724000000000002
  9.3503799999999995 20.2610999999999990  6.7763000000000000
 10.8515999999999995 21.6812000000000005  5.6385500000000004
 12.2836999999999996 20.4495000000000005  4.2052800000000001
 13.5764999999999993 19.0027000000000008  5.5786800000000003
 17.8691999999999993 18.2048999999999985  6.8745399999999997
 17.7321999999999989 20.4456999999999987  4.0596699999999997
 21.5750999999999991 21.4162999999999997  5.6506299999999996
 19.5278999999999989 19.4558999999999997  5.4122399999999997
  0.5349550000000000  2.0333600000000001  8.9237500000000001
  2.8069500000000001 21.6920000000000002  7.8041000000000000
  2.6585399999999999  3.0988199999999999  9.8033300000000008
  3.6960099999999998  2.2469500000000000  7.9186699999999997
  7.0744300000000004  3.1261999999999999  8.4230800000000006
  5.6516000000000002  0.9756300000000000 10.5228000000000002
  9.0189299999999992  2.3269299999999999  9.8283000000000005
 10.8421000000000003  2.7574399999999999  8.2531700000000008
 14.2032000000000007  0.6365740000000000  8.0599500000000006
 16.2017999999999986  1.7866500000000001  7.3930800000000003
 17.6879999999999988  2.5379700000000001  9.1765600000000003
 15.9614999999999991  3.6014200000000001 10.3033999999999999
 18.3588999999999984  0.9439220000000000 10.8280999999999992
  1.8030700000000000  5.1702300000000001  9.5178700000000003
  3.4741100000000000  6.0567700000000002  8.2088800000000006
  5.1982600000000003  3.2400400000000000 10.0090000000000003
  7.9548600000000000  5.1492500000000003  7.7482899999999999
  9.0176900000000000  6.0874800000000002  9.5196900000000007
 12.4665999999999997  3.5187100000000000  9.6987900000000007
 11.2021999999999995  5.4792300000000003 10.0944000000000003
 14.3836999999999993  4.3298699999999997  8.7125800000000009
 13.1006999999999998  6.4044800000000004  8.8530499999999996
 17.6204000000000001  6.8441700000000001  9.0165900000000008
 18.9461000000000013  4.5490000000000004  8.6775099999999998
  1.3251700000000000  7.2830800000000000 10.5305000000000000
  1.0655500000000000  8.5293700000000001  8.4596099999999996
  2.3161999999999998 10.6281999999999996  7.9920299999999997
  3.8946299999999998  9.2915700000000001 10.9662000000000006
  4.3779100000000000  8.4020399999999995  8.8480500000000006
  6.5403399999999996  8.9784799999999994  8.5207099999999993
  8.5741700000000005  8.3015600000000003  9.3407199999999992
 10.5366999999999997  8.7158700000000007  8.2270299999999992
 11.9366000000000003  9.8151200000000003  9.6800499999999996
 13.2356999999999996 10.8244000000000007  7.9996900000000002
 13.6837000000000000  8.2539200000000008 10.0139999999999993
 13.3275000000000006  7.1397599999999999 11.9990000000000006
 15.9215999999999998  8.4282699999999995  8.9443999999999999
 17.2600000000000016 10.2948000000000004  9.4643300000000004
 19.2552999999999983 10.0161999999999995 10.6608999999999998
 20.5366000000000000  8.0460300000000000  7.6764900000000003
 19.5218999999999987  7.9043299999999999  9.8075500000000009
  2.4192499999999999 14.1136999999999997  9.7034000000000002
  0.4264580000000000 13.1059000000000001  8.8359199999999998
  5.8692799999999998 12.4301999999999992 10.4314000000000000
  3.5108700000000002 12.0589999999999993  9.6328399999999998
  7.0257800000000001 11.4453999999999994  8.5059400000000007
  8.8257999999999992 12.7318999999999996  9.3044399999999996
 10.5953999999999997 13.3986000000000001  8.0229900000000001
 14.2612000000000005 12.7490000000000006  8.7263699999999993
 12.5446000000000009 14.2367000000000008  9.0835299999999997
 17.4739000000000004 13.1297999999999995  7.9455999999999998
 18.0904999999999987 11.0662000000000003  7.2836600000000002
 16.2677000000000014 12.3922000000000008  9.8117599999999996
 20.8908999999999985 11.8501999999999992 10.4848999999999997
  3.1224300000000000 17.4805999999999990  9.3840500000000002
  5.9254100000000003 14.8475999999999999 10.3664000000000005
  4.1506699999999999 15.4338999999999995  8.9732900000000004
  8.3717199999999998 15.0656999999999996  9.8711400000000005
  8.5832999999999995 16.6396000000000015  8.0678900000000002
 13.3384999999999998 16.4552000000000014  8.1695100000000007
 13.2783999999999995 17.6712999999999987 10.1401000000000003
 12.1464999999999996 14.7248999999999999 11.3293999999999997
 15.5266000000000002 15.8066999999999993  7.3036000000000003
 17.4300999999999995 16.4975999999999985  8.3715299999999999
 17.1631000000000000 17.0919999999999987 10.6186000000000007
 18.9054000000000002 14.8170000000000002  7.4901299999999997
 21.0325999999999986 15.1468000000000007  8.4680900000000001
 20.5770000000000017 15.3318999999999992 10.7108000000000008
  3.8644500000000002 21.2907000000000011  9.8762899999999991
  0.6726150000000000 20.3689000000000000  7.8606800000000003
  1.9269600000000000 18.2756000000000007  7.4962600000000004
  4.8254500000000000 19.1599000000000004  9.8359900000000007
  6.0633200000000000 19.5997999999999983  7.8595699999999997
  9.1840600000000006 21.6793000000000013  9.8338500000000000
  7.7377099999999999 21.2897999999999996  7.9981099999999996
 10.0675000000000008 18.4137999999999984  8.0920799999999993
 11.2902000000000005 20.9450000000000003 10.6303999999999998
 13.6080000000000005  0.2064550000000000 10.3635000000000002
 11.1356999999999999 18.6180999999999983 10.1798000000000002
 14.4582999999999995 19.6914000000000016  9.8654100000000007
 16.8936999999999991 20.2146000000000008  7.2055199999999999
 17.7521999999999984 20.6572999999999993  9.5050000000000008
 14.5783000000000005 20.0924000000000014  7.5819299999999998
 16.4528999999999996 19.2866000000000000 11.1964000000000006
  0.1216240000000000 21.5993999999999993  9.8735199999999992
 20.0375000000000014 18.5634000000000015  7.4764099999999996
 19.9837999999999987 19.6452999999999989  9.5417699999999996
  1.7805400000000000  2.2535400000000001 14.0318000000000005
  2.8897200000000001  2.0885400000000001 12.0153999999999996
  4.9813499999999999  1.4828100000000000 12.7477000000000000
  6.1487299999999996  3.2280700000000002 13.6560000000000006
  8.2738099999999992  2.4901900000000001 14.2180000000000000
  9.3025900000000004  3.4606800000000000 11.9067000000000007
 11.4002999999999997  5.9114599999999999 12.4492999999999991
 13.9520999999999997 21.4792999999999985 13.2157999999999998
 14.9471000000000007  1.4428399999999999 11.8640000000000008
 17.0899999999999999  1.7143800000000000 12.6443999999999992
 17.6809000000000012  3.5766200000000001 13.9219000000000008
 17.1609000000000016  0.5823490000000000 14.7193000000000005
 21.2676000000000016  2.5716899999999998 12.9603000000000002
 20.5709000000000017  0.7971810000000000 11.6047999999999991
  5.9656599999999997  4.5746900000000004 11.8148999999999997
  5.0579900000000002  6.6744199999999996 12.7094000000000005
  8.0410400000000006  5.4211799999999997 11.5155999999999992
  9.1109700000000000  6.6644699999999997 13.3276000000000003
 13.8018999999999998  3.4631099999999999 11.9309999999999992
 14.8437000000000001  5.4449399999999999 12.5078999999999994
 15.2840000000000007  5.9659700000000004 14.8031000000000006
 16.6999999999999993  5.8014400000000004 10.8663000000000007
 17.1769999999999996  7.0302300000000004 14.1997999999999998
 18.0994999999999990  5.5116500000000004 12.6736000000000004
 20.4731999999999985  5.1399200000000000 12.7627000000000006
 20.9343000000000004  7.0685099999999998 11.6164000000000005
  2.3547300000000000  8.4496599999999997 14.2784999999999993
  3.0250300000000001  7.5498200000000004 12.1872000000000007
  0.6182080000000000 10.0029000000000003 13.9545999999999992
  5.7901300000000004 10.3521999999999998 14.0503999999999998
  5.9357699999999998  9.0229199999999992 12.1838999999999995
  9.1908999999999992  8.9107000000000003 13.4046000000000003
  8.0688600000000008  9.4302100000000006 11.3286999999999995
 11.3000000000000007  9.7994500000000002 13.4717000000000002
 13.3728999999999996  8.8766300000000005 13.6872000000000007
 15.1442999999999994  9.9078400000000002 12.3657000000000004
 16.9762999999999984  9.3346000000000000 13.8330000000000002
 20.4821999999999989  8.5871399999999998 13.4253000000000000
 18.9222000000000001 10.1562999999999999 12.9282000000000004
  0.8465920000000000 11.5754000000000001 12.1888000000000005
  3.3754400000000002 13.4175000000000004 13.9352999999999998
  1.1010800000000001 13.6244999999999994 13.2728000000000002
  3.1541899999999998 11.2624999999999993 11.7752999999999997
  5.1130199999999997 12.2634000000000007 12.8789999999999996
  6.5844500000000004 14.0142000000000007 13.4330999999999996
  9.1954999999999991 11.5481999999999996 11.2375000000000007
  8.9520400000000002 13.2078000000000007 12.9742999999999995
 11.5245999999999995 11.0806000000000004 11.4868000000000006
 10.9699000000000009 13.1717999999999993 14.2042999999999999
 12.7108000000000008 12.8924000000000003 12.6015999999999995
 15.0847999999999995 12.2881000000000000 12.8280999999999992
 16.9343000000000004 13.3902000000000001 11.8262000000000000
 17.5463999999999984 13.6092999999999993 14.9242000000000008
 20.3858999999999995 13.9930000000000003 13.5162999999999993
 19.4296000000000006 12.0874000000000006 14.4488000000000003
 19.3631999999999991 13.4677000000000007 11.3910999999999998
  2.9952999999999999 15.7311999999999994 14.2917000000000005
  1.1270300000000000 15.1647999999999996 11.4766999999999992
  0.7262210000000000 16.7746999999999993 14.4319000000000006
  1.9503600000000001 17.2986000000000004 11.4495000000000005
  3.9850500000000002 17.1838000000000015 12.7507000000000001
  6.0127899999999999 16.0307999999999993 12.3672000000000004
  7.7818300000000002 17.6005000000000003 12.4832999999999998
 10.0660000000000007 17.5824999999999996 12.0861999999999998
  9.8626900000000006 15.2164999999999999 11.6663999999999994
 13.7367000000000008 16.3182000000000009 11.9250000000000007
 13.5568000000000008 17.6111000000000004 13.9091000000000005
 16.7664000000000009 15.7215000000000007 14.2316000000000003
 16.0284000000000013 15.5701999999999998 11.9078999999999997
 18.5908000000000015 17.3023999999999987 14.4417000000000009
 19.4354000000000013 17.5070000000000014 10.7802000000000007
  0.7523030000000001 18.8061000000000007 13.0625999999999998
  2.0872299999999999 21.6667999999999985 11.3180999999999994
  2.6164200000000002 20.4277000000000015 13.3286999999999995
  4.8535500000000003 19.3576000000000015 13.2300000000000004
  6.4751599999999998 19.4101999999999997 11.5554000000000006
  7.4041600000000001 21.5237000000000016 11.3995999999999995
  8.0905299999999993 18.1322000000000010 14.7233000000000001
  9.2848100000000002 20.1629000000000005 14.7003000000000004
 11.5588999999999995 20.9850999999999992 12.9152000000000005
 11.1569000000000003 18.7011000000000003 13.7957000000000001
 13.6752000000000002  0.2079620000000000 15.6569000000000003
 16.4587000000000003 19.9765000000000015 14.9085999999999999
 14.9926999999999992 19.3363000000000014 13.1320999999999994
 18.6626000000000012 18.7639999999999993 12.5387000000000004
 20.5592000000000006 20.2318999999999996 12.6927000000000003
  2.1853799999999999  0.1757120000000000 15.0876000000000001
  3.6101700000000001  0.8691140000000001 16.9857000000000014
  7.0750599999999997  3.8297200000000000 17.3318000000000012
  3.5233599999999998  3.1400800000000002 17.0941000000000010
  7.8006900000000003  0.1781640000000000 13.8211999999999993
  7.6224600000000002  2.1021399999999999 18.7871999999999986
  7.9468100000000002  1.1641699999999999 16.5842999999999989
 12.6526999999999994  1.8188899999999999 17.0438000000000009
 11.5663999999999998  3.3710599999999999 12.4658999999999995
 11.9304000000000006  3.2132600000000000 14.8810000000000002
 16.3921999999999990  0.9098619999999999 18.1812000000000005
 15.5989000000000004  1.7306699999999999 15.9365000000000006
 19.6920000000000002  2.7791600000000001 14.7667000000000002
 19.1103999999999985  0.7947320000000000 15.8859999999999992
 18.6042999999999985  1.4104699999999999 18.1991000000000014
  0.3607260000000000  2.6506599999999998 16.7419000000000011
  1.6143300000000000  6.2114700000000003 15.0329999999999995
  2.1227299999999998  4.0502099999999999 15.4914000000000005
  1.9977700000000000  6.8909500000000001 17.2524000000000015
  5.2833199999999998  3.9061400000000002 15.8344000000000005
  5.3826099999999997  6.0632299999999999 15.0379000000000005
  6.0698299999999996  7.5297299999999998 18.0411999999999999
  7.8655799999999996  6.3408300000000004 15.3756000000000004
 10.2003000000000004  3.9360400000000002 18.3430999999999997
 10.7499000000000002  5.3255699999999999 14.8610000000000007
  8.9320400000000006  4.2882699999999998 16.0688999999999993
 11.5321999999999996  6.8828100000000001 16.5319000000000003
 12.2799999999999994  5.1092100000000000 18.0319000000000003
 16.2454999999999998  4.0264800000000003 15.8628000000000000
 14.4230999999999998  3.8395000000000001 17.5300000000000011
 18.3058000000000014  4.6938700000000004 17.0264999999999986
 20.4630000000000010  4.3731200000000001 16.4889000000000010
 21.0987000000000009  6.0295199999999998 14.8630999999999993
  0.9870910000000001  8.9904200000000003 18.1245000000000012
  4.3034900000000000  7.3972400000000000 16.5796999999999990
  4.1444099999999997  9.5147200000000005 15.5206000000000000
  7.9263300000000001  8.2079500000000003 16.8121000000000009
  7.7945200000000003  9.8437199999999994 15.0998000000000001
 10.0427000000000000  8.2454900000000002 17.9154000000000018
 13.6989999999999998  7.6171100000000003 15.6476000000000006
 10.6029999999999998 10.5359999999999996 17.4820999999999991
 18.1869000000000014  6.7873299999999999 16.2924000000000007
 14.8955000000000002  9.1907800000000002 16.9705000000000013
 16.3687000000000005 10.5035000000000007 15.8676999999999992
 20.1241999999999983  7.9328000000000003 15.7517999999999994
 20.7414999999999985  9.7504600000000003 17.1552000000000007
  0.4476890000000000 13.1575000000000006 16.9633000000000003
  4.1147900000000002 13.2022999999999993 16.1123000000000012
  4.2634299999999996 11.1808999999999994 17.1446000000000005
  6.2166499999999996 14.2452000000000005 15.7873999999999999
  8.4044699999999999 11.3934999999999995 17.7092999999999989
  8.3189200000000003 13.5159000000000002 16.8080999999999996
  8.7717700000000001 11.9391999999999996 15.0846999999999998
 10.8968000000000007 11.0829000000000004 15.2782000000000000
 11.9152000000000005 12.2116000000000007 18.7776999999999994
 11.9680000000000000 14.0487000000000002 17.1738000000000000
 14.3038000000000007 14.3315000000000001 16.3875999999999991
 17.4253000000000000 11.6288999999999998 17.5836000000000006
 14.7984000000000009 14.2515000000000001 18.7288999999999994
 15.4766999999999992 12.5991999999999997 15.0931999999999995
 18.0814999999999984 13.9084000000000003 17.2225999999999999
 21.3575000000000017 11.3074999999999992 15.6722000000000001
  2.3130400000000000 14.5454000000000008 17.1250999999999998
  2.8601200000000002 17.0706999999999987 17.1489000000000011
  0.9466850000000000 18.0982999999999983 16.3363000000000014
  5.9734200000000000 15.8150999999999993 17.6462000000000003
  4.7127100000000004 16.5350000000000001 15.8320000000000007
  8.2753700000000006 16.6764000000000010 17.8188999999999993
 10.1300000000000008 14.7167999999999992 15.7870000000000008
  9.8729800000000001 17.1752000000000002 16.0582999999999991
 11.7096999999999998 15.7615999999999996 18.6428000000000011
 11.6675000000000004 17.8313999999999986 17.4906000000000006
 14.8679000000000006 16.6139000000000010 15.6418999999999997
 14.0558999999999994 17.9122999999999983 17.4266000000000005
 16.9860000000000007 15.2462000000000000 19.0120000000000005
 17.8340999999999994 17.5575000000000010 19.5847000000000016
 21.3633999999999986 16.9042999999999992 18.0573000000000015
 18.6593000000000018 19.1316999999999986 15.8925000000000001
 20.2557000000000009 15.8459000000000003 15.0717999999999996
 20.3632999999999988 14.7622000000000000 17.1460000000000008
  3.2557800000000001 21.0374000000000017 18.6651999999999987
  0.5593440000000000 20.3966999999999992 16.2225999999999999
  5.4249700000000001 21.3850000000000016 14.1746999999999996
  5.8204099999999999 18.4135999999999989 15.2578999999999994
  5.7426300000000001  0.0815183000000000 16.5066999999999986
  6.6070900000000004 19.7330000000000005 17.0697000000000010
  8.7337000000000007 20.7101000000000006 17.0496000000000016
 11.4213000000000005 21.4003000000000014 16.0108999999999995
 11.7909000000000006 20.3127999999999993 18.0045000000000002
 14.9784000000000006 20.1136000000000017 16.6250000000000000
 16.3184000000000005 20.1533000000000015 18.6995000000000005
 20.2918999999999983 20.6281999999999996 15.1216000000000008
  0.4752770000000000  1.7219199999999999 19.0615999999999985
  2.3382600000000000  1.9702200000000001 20.4969999999999999
  6.8197099999999997 21.4642000000000017 22.5535999999999994
  4.1944800000000004  0.5954050000000000 20.3765999999999998
  5.7264600000000003  2.4421599999999999 20.3379000000000012
  6.3876200000000001  2.1511600000000000 22.5209000000000010
  9.6803399999999993  3.5578400000000001 21.2411999999999992
 13.9468999999999994 20.4928999999999988 18.9864999999999995
  9.8172200000000007  1.8198700000000001 19.5015000000000001
 10.1824999999999992  1.9503200000000001 16.1844000000000001
 11.9745000000000008  1.4580900000000001 20.8638000000000012
 15.3270000000000000  2.7586499999999998 19.4682999999999993
 19.3853000000000009 21.5626999999999995 22.2585000000000015
 18.9480000000000004 21.4926999999999992 19.9006000000000007
  1.5582300000000000  5.8171799999999996 19.3520000000000003
  2.5070000000000001  6.8314000000000004 21.2545000000000002
  2.7743000000000002  3.7781799999999999 19.1269999999999989
  4.8226199999999997  4.4694900000000004 20.1159999999999997
  6.7142799999999996  5.4720399999999998 19.0042000000000009
  8.9731699999999996  5.3388400000000003 19.7603000000000009
 11.9636999999999993  3.3434400000000002 22.0592000000000006
 13.6041000000000007  4.8987699999999998 21.5807000000000002
 12.9707000000000008  6.5032899999999998 19.9756000000000000
 16.6541999999999994  7.4195500000000001 18.0335000000000001
 17.0855999999999995  4.9729599999999996 19.1239999999999988
 18.6329999999999991  3.0225000000000000 20.0723999999999982
 20.9028999999999989  5.4995500000000002 18.6173999999999999
  2.6398000000000001 10.5564000000000000 18.6433999999999997
  3.6501199999999998  9.1677099999999996 20.6232000000000006
  5.8991699999999998  9.1753000000000000 19.7626999999999988
  9.4290800000000008  7.7027799999999997 20.1305000000000014
  7.5010899999999996  8.5391899999999996 21.3549000000000007
 13.7780000000000005 10.5913000000000004 18.7256000000000000
 12.4761000000000006 10.1005000000000003 21.0623000000000005
 11.4994999999999994  7.9181400000000002 21.1366000000000014
 14.5300999999999991  8.1754999999999995 19.2125999999999983
 18.2134000000000000  8.5382599999999993 19.6442000000000014
 16.1280999999999999  8.8151100000000007 20.9420999999999999
  0.5464770000000000 10.4979999999999993 21.8752999999999993
 19.0384999999999991 10.3431999999999995 18.6558999999999990
  0.8491400000000000  8.5120199999999997 20.4052000000000007
 19.1397000000000013  6.4713599999999998 20.1917000000000009
  1.1560999999999999 12.3460000000000001 19.0746000000000002
  2.4914100000000001 14.2279999999999998 19.5711000000000013
  6.4608900000000000 13.0990000000000002 20.0758000000000010
  6.1532799999999996 11.1946999999999992 18.6418999999999997
  4.8227799999999998 14.5619999999999994 19.5150000000000006
  9.8606499999999997 11.8300000000000001 19.5997999999999983
 10.4116999999999997 11.1355000000000004 21.9530999999999992
  8.7759900000000002 13.6538000000000004 20.4340000000000011
 10.1072000000000006 13.4962999999999997 22.3866000000000014
 12.2011000000000003 13.5160999999999998 21.0146000000000015
 13.8545999999999996 12.6973000000000003 22.9363999999999990
 16.2333999999999996 11.1244999999999994 21.7895000000000003
 15.5742999999999991 12.0803999999999991 19.1881999999999984
 21.5995999999999988 12.6788000000000007 21.0750999999999991
 19.3095999999999997 12.3969000000000005 20.1768999999999998
  0.0119589000000000 11.0370000000000008 25.1752000000000002
  0.7697030000000000 16.9426999999999985 20.1366000000000014
  3.1408900000000002 17.9131999999999998 20.3787999999999982
  4.5894500000000003 16.3027000000000015 21.1796000000000006
  6.4272499999999999 18.0804000000000009 18.7247999999999983
  9.5615500000000004 15.6659000000000006 19.4984000000000002
  9.4446800000000000 17.4375999999999998 20.8899000000000008
 13.3244000000000007 15.4238000000000000 20.2960999999999991
 13.7510999999999992 17.3541999999999987 21.5742000000000012
 17.0237000000000016 15.1942000000000004 21.3567000000000000
 15.3897999999999993 17.9694000000000003 19.3043000000000013
 16.1837000000000018 17.3464999999999989 22.0865000000000009
 20.5472000000000001 14.5287000000000006 19.7514000000000003
 19.3304000000000009 17.7668999999999997 21.7108999999999988
 19.5640000000000001 18.4228999999999985 18.0411999999999999
 21.3798999999999992 18.6756999999999991 21.3744000000000014
  0.7819750000000000 21.0283000000000015 18.5765999999999991
  4.3943399999999997 21.3601999999999990 22.4038000000000004
  4.0536700000000003 18.8409000000000013 18.3707999999999991
  7.4601899999999999 18.5970000000000013 20.7833000000000006
  8.3567900000000002 20.6132999999999988 21.1190999999999995
 10.9480000000000004 18.8733000000000004 19.5869000000000000
  9.6953700000000005 21.0761000000000003 19.1065000000000005
 13.0099999999999998 19.3988000000000014 20.9391999999999996
 11.9951000000000008 21.1433999999999997 22.1339000000000006
 10.6460000000000008  1.3181300000000000 13.8363999999999994
 17.1391999999999989  1.3501700000000001 21.1458000000000013
 17.0106000000000002 20.7722000000000016 20.8140000000000001
 14.7814999999999994 20.6804999999999986 21.9807999999999986
 20.6704000000000008 19.8277000000000001 19.5555999999999983
 20.8580000000000005  2.7555200000000002 25.1417000000000002
  1.3931400000000000  1.8146899999999999 22.7270000000000003
  3.3062000000000000  0.9981020000000000 24.0817000000000014
  4.7797400000000003  2.6816700000000000 24.2765999999999984
  8.7289300000000001 21.1556999999999995 24.2033999999999985
 11.6692000000000000  1.5191500000000000 25.4899999999999984
  8.3808399999999992  3.1559499999999998 23.1570999999999998
 12.5762000000000000 21.6073999999999984 24.3919999999999995
 10.0396999999999998 20.0657999999999994 22.6875000000000000
 14.8050999999999995  2.7982999999999998 23.6572999999999993
 15.7292000000000005  3.7847300000000001 21.5713000000000008
 17.7992999999999988  1.0148600000000001 23.5408000000000008
 21.5704999999999991  0.0451928000000000 22.9277000000000015
 18.6776000000000018  2.8607600000000000 24.6264000000000003
  0.6371220000000000  3.7544900000000001 23.7846000000000011
  3.3108499999999998  4.5026299999999999 23.8520000000000003
  4.9329999999999998  4.2082800000000002 26.1327999999999996
  7.1617699999999997  4.9617000000000004 26.0892000000000017
  4.3577300000000001  5.6763700000000004 21.9731999999999985
  6.4749600000000003  6.8943800000000000 22.7881000000000000
 10.8294999999999995  5.1124000000000001 26.0562000000000005
  7.7290799999999997  5.2818600000000000 23.7789000000000001
  9.7050699999999992  6.7467800000000002 24.5400999999999989
 11.9382000000000001  3.6230699999999998 24.4993000000000016
 14.1204999999999998  4.8406700000000003 24.9440999999999988
 13.7937999999999992  6.5068999999999999 23.2680000000000007
 16.7864000000000004  5.8963000000000001 25.1066000000000003
 17.3107000000000006  5.4180599999999997 21.5817000000000014
 20.9732999999999983  3.7092900000000002 20.0339999999999989
 18.9642000000000017  4.5389999999999997 23.0482000000000014
 19.2269000000000005  5.6876300000000004 24.9429000000000016
 18.1441000000000017  8.0022599999999997 23.7388000000000012
 21.1613000000000007  4.7658500000000004 22.1478000000000002
  3.5905800000000001  8.2995900000000002 25.2760999999999996
  4.5450100000000004 10.3194999999999997 22.4557000000000002
  5.6237000000000004 10.9644999999999992 25.3247999999999998
  5.5646800000000001  8.6744199999999996 23.9049000000000014
  7.9771500000000000 10.2836999999999996 24.8540999999999990
  8.1836400000000005 10.4396000000000004 22.5004999999999988
 14.1984999999999992 10.3812999999999995 22.7095999999999982
 11.6022999999999996  7.7236000000000002 23.4713999999999992
 11.4297000000000004  9.8041199999999993 24.4656999999999982
 16.1260000000000012  7.0673700000000004 22.6243000000000016
 17.2871999999999986  9.4434100000000001 25.3281999999999989
 21.4908000000000001  6.9996600000000004 24.9774999999999991
 19.9238999999999997  9.3143799999999999 22.7517999999999994
 20.9192000000000000  7.1702700000000004 21.7362000000000002
  1.6535299999999999 10.0058000000000007 23.9503999999999984
  1.3105800000000001 15.0020000000000007 21.3631999999999991
  1.3510599999999999  7.4640500000000003 23.3122000000000007
  3.9684300000000001 13.7258999999999993 24.0585999999999984
  6.3881100000000002 11.8851999999999993 22.0777000000000001
  3.5049800000000002 11.5396999999999998 24.1966000000000001
  8.6706599999999998 12.5860000000000003 24.7872999999999983
  6.4970400000000001 13.8271999999999995 23.9027999999999992
 10.9494000000000007 12.2539999999999996 24.4294000000000011
 12.1814000000000000 13.1651000000000007 26.3733000000000004
 14.2401999999999997 12.8507999999999996 25.3476999999999997
 16.9304999999999986 11.8115000000000006 25.6599000000000004
 13.6130999999999993 10.5358999999999998 25.0219999999999985
 20.2566999999999986 12.3884000000000007 23.8439000000000014
 21.0850000000000009 14.6625999999999994 23.0965999999999987
  3.2033399999999999 17.0165000000000006 24.6155000000000008
  3.0879500000000002 15.4289000000000005 22.8656000000000006
  6.7052399999999999 13.1365999999999996 26.0230999999999995
  5.3321199999999997 16.5949999999999989 25.5424000000000007
  6.1008500000000003 17.7056000000000004 22.4008000000000003
  8.6707800000000006 17.4896999999999991 25.0652000000000008
  7.0386800000000003 16.2486999999999995 24.0147000000000013
 10.7871000000000006 15.2270000000000003 23.8144999999999989
 12.4314000000000000 16.9787999999999997 23.6496999999999993
 15.5734999999999992 14.9032000000000000 26.1825000000000010
 16.1992000000000012 13.3527000000000005 22.5810999999999993
 17.1494999999999997 14.0379000000000005 24.6290000000000013
 18.6909999999999989 11.3298000000000005 22.1520000000000010
 18.9695999999999998 15.4977999999999998 24.5666000000000011
 19.5034999999999989 15.4657999999999998 21.6082999999999998
  0.9212160000000000 19.7633000000000010 22.9190000000000005
  3.0856200000000000 19.4769000000000005 22.2988999999999997
  1.1694000000000000 18.7613999999999983 25.1682999999999986
  4.7228199999999996 18.7846000000000011 23.8825000000000003
  5.7050200000000002 20.4983000000000004 25.4399000000000015
 10.2356999999999996 17.7268000000000008 23.0772000000000013
  7.9792500000000004 19.5643999999999991 25.8341999999999992
 12.3156999999999996 18.9995000000000012 24.9139000000000017
 15.6804000000000006 20.7042000000000002 25.7024000000000008
 13.6379999999999999  1.1695100000000000 19.1628000000000007
 14.9063999999999997  0.5029000000000000 23.7849000000000004
 15.8435000000000006 17.1945000000000014 24.4769000000000005
 18.7664000000000009 17.7784000000000013 24.4379999999999988
 17.9699999999999989 19.5090000000000003 22.6858000000000004
 17.2276999999999987 18.1687000000000012 26.8256000000000014
 21.2770000000000010  0.4895310000000000 25.2015999999999991
  1.7244400000000000  0.5309080000000000 25.9222999999999999
  1.2683700000000000  2.7883599999999999 27.0847000000000016
  4.5981800000000002  3.8817599999999999 28.5955000000000013
  6.2652299999999999  1.2342900000000001 25.6631000000000000
  8.5582100000000008  1.8117300000000001 24.9899999999999984
  8.5993700000000004  4.1723499999999998 29.3552000000000000
 11.9353999999999996  1.7427900000000001 28.0148000000000010
 13.4481000000000002  3.5205700000000002 28.6628000000000007
 13.9788999999999994  0.8145490000000000 30.7846000000000011
 15.5261999999999993  1.0066200000000001 28.9692000000000007
 14.8617000000000008 20.2684999999999995 27.7488999999999990
 16.5174999999999983  3.4261900000000001 25.1632999999999996
 15.4299999999999997  2.7458999999999998 27.4103999999999992
 20.3756999999999984  1.9279900000000001 28.8591000000000015
 19.1034000000000006  0.1538160000000000 28.0211000000000006
 17.8621000000000016 20.7474999999999987 24.7646000000000015
 19.7791999999999994 20.6654000000000018 26.0826999999999991
  1.7180299999999999  5.2498500000000003 27.3018999999999998
  3.4291900000000002  5.8615300000000001 25.6671000000000014
  6.7692300000000003  6.6821200000000003 27.7575000000000003
  4.7082699999999997  7.8800800000000004 27.5606000000000009
  9.0587400000000002  3.8895900000000001 26.8159999999999989
 13.1550999999999991  7.5151199999999996 27.5834000000000010
  6.3659999999999997  5.1184300000000000 29.2834000000000003
 13.0134000000000007  5.2485900000000001 26.8432999999999993
 14.9967000000000006  9.0040200000000006 26.4105999999999987
 16.6213000000000015  4.7348299999999997 28.0583999999999989
 20.7281000000000013  3.7548400000000002 27.2119999999999997
 18.9331999999999994  5.3361000000000001 27.4218000000000011
  0.9173230000000000  9.5658300000000001 27.5385999999999989
  2.7289099999999999 11.5211000000000006 26.6262000000000008
  4.7672100000000004 10.3318999999999992 27.4152999999999984
  8.3786100000000001 10.4085999999999999 28.6649999999999991
  9.3300400000000003  8.6112599999999997 25.7816000000000010
  8.6376100000000005  7.9996700000000001 28.0839999999999996
 11.1730999999999998 11.5793999999999997 27.8052999999999990
 14.2127999999999997  7.8712900000000001 29.7260999999999989
 12.6524999999999999  8.6701200000000007 31.4022000000000006
 11.5068000000000001  9.3964300000000005 26.8462999999999994
 15.0998000000000001 10.0962999999999994 28.5549999999999997
 15.8138000000000005  6.8677599999999996 27.1816999999999993
  0.3625420000000000  7.0480499999999999 27.1290000000000013
 17.1229000000000013  8.0770099999999996 28.6481999999999992
 20.0433999999999983  7.1996900000000004 28.2591000000000001
  3.4223200000000000 13.9997000000000007 26.3050999999999995
  3.4592200000000002 13.9985999999999997 28.7582999999999984
  8.8564600000000002 12.4026999999999994 27.2305999999999990
  9.2847000000000008 14.3848000000000003 28.6710999999999991
 10.9957999999999991 16.3621000000000016 29.6617999999999995
 14.3889999999999993 12.8209999999999997 30.7893000000000008
 15.7639999999999993 12.2857000000000003 27.4842000000000013
 19.3518000000000008 12.7666000000000004 26.1954999999999991
 21.2868999999999993 10.9205000000000005 28.9605999999999995
 21.7040000000000006 13.2713000000000001 28.9096000000000011
 18.7394999999999996 14.8644999999999996 27.0706999999999987
 19.1994000000000007 11.3362999999999996 28.0641999999999996
 21.7022000000000013 12.9906000000000006 26.6119999999999983
 19.0198999999999998  9.0856600000000007 26.9980000000000011
  2.0445199999999999 15.8178000000000001 26.4568000000000012
  0.9303290000000000 16.5705999999999989 28.6207999999999991
  4.9807899999999998 17.8128999999999991 27.3874999999999993
  5.7195999999999998 14.8994000000000000 27.1781000000000006
  7.2563599999999999 17.8795999999999999 27.6679999999999993
  8.1988099999999999 19.4301999999999992 29.0795999999999992
 12.1656999999999993 15.4182000000000006 27.2942999999999998
 10.0389999999999997 15.7158999999999995 26.0923000000000016
 12.3338000000000001 18.3704999999999998 29.1707999999999998
 14.2721000000000000 15.4964999999999993 28.8271000000000015
 14.9525000000000006 17.9286999999999992 27.5832000000000015
  0.0359073000000000 15.0681999999999992 25.3715000000000011
 20.6805999999999983 16.3014000000000010 27.1994000000000007
  2.1300200000000000 20.2210999999999999 26.8062000000000005
  0.9528540000000000 20.2798000000000016 28.8240000000000016
  4.3369799999999996 20.1517000000000017 27.2740000000000009
  4.6753799999999996 21.7029999999999994 28.9376999999999995
  9.6910399999999992  1.4687200000000000 27.3640000000000008
 11.6696000000000009 19.5005999999999986 27.1260000000000012
  9.4704899999999999 20.6967999999999996 27.3096999999999994
 12.9080999999999992 21.3857999999999997 27.8720999999999997
 14.7617999999999991 19.2590000000000003 24.1070999999999991
 20.4671999999999983  9.0820500000000006 25.1466999999999992
 13.7957999999999998 16.5405000000000015 25.8898000000000010
 19.1935000000000002 18.1651999999999987 28.1069999999999993
 20.6539000000000001 18.5412999999999997 25.8465999999999987
 16.9309000000000012 20.7623999999999995 28.8625000000000007
 20.3723999999999990 20.1317999999999984 29.0219999999999985
  0.9536970000000000  2.1209300000000000 29.3469000000000015
  2.4603199999999998  4.4143699999999999 29.3641000000000005
  0.7650020000000000  2.6320600000000001 31.8454000000000015
  6.7032100000000003  0.2425620000000000 32.7862000000000009
  4.6112099999999998  3.1420599999999999 31.1031000000000013
  4.1144100000000003 18.6236999999999995 29.5810999999999993
  5.9399800000000003  5.4712699999999996 34.0103999999999971
  6.3313499999999996  2.4921099999999998 32.4226999999999990
  8.0078200000000006  1.8671599999999999 29.2165999999999997
 10.7855000000000008  2.9725799999999998 30.6133999999999986
 10.9260999999999999  0.6629670000000000 31.4038000000000004
  8.6005299999999991  2.8660999999999999 31.9452999999999996
 14.5497999999999994  5.0293799999999997 32.8534999999999968
 15.2423000000000002  3.7076799999999999 31.0064999999999991
 17.0710000000000015  1.6947500000000000 31.1661999999999999
 20.7555000000000014  1.0683100000000001 32.4780000000000015
  3.5165999999999999  6.0708700000000002 30.6475000000000009
  2.1316400000000000  6.2772600000000001 32.5863000000000014
  3.4302500000000000  5.6928900000000002 34.4414000000000016
  5.4456899999999999  5.3248899999999999 31.6816999999999993
  4.2339900000000004  8.1827799999999993 29.8778000000000006
  7.3057999999999996  6.6661299999999999 30.7618000000000009
  6.5044899999999997  9.0277999999999992 30.4639999999999986
  9.4212900000000008  6.0700799999999999 31.3878999999999984
 10.3413000000000004  6.1639900000000001 28.2465000000000011
 11.5493000000000006  5.2936800000000002 30.0227000000000004
 12.4794000000000000  6.0593000000000004 32.1212999999999980
 15.4199000000000002  5.6284000000000001 29.7770000000000010
 17.2514000000000003  6.7253100000000003 30.7898999999999994
 18.7882999999999996  4.7061999999999999 31.5230999999999995
  0.4900660000000000  4.7187799999999998 32.6940000000000026
 19.3663999999999987  2.3446899999999999 31.0681000000000012
 20.6666999999999987  6.1638299999999999 31.7292999999999985
  1.9721000000000000  8.6430900000000008 32.8188999999999993
  3.3157399999999999 11.7827000000000002 30.2793999999999990
  2.3680400000000001  9.8782800000000002 29.3116999999999983
  6.9498300000000004 11.9952000000000005 31.6311000000000000
  4.9175800000000001 11.0551999999999992 31.9527000000000001
  9.3181600000000007 10.7369000000000003 30.7929999999999993
 10.2066999999999997  8.1751299999999993 31.0013000000000005
 13.6485000000000003 12.1164000000000005 28.6163999999999987
 11.8318999999999992 10.7863000000000007 31.5893000000000015
 14.6501999999999999  9.1221099999999993 32.8290999999999968
 18.1209999999999987 12.7265999999999995 29.7488999999999990
 17.2696000000000005 10.4490999999999996 29.8475999999999999
 19.1754999999999995  9.4293200000000006 31.4853999999999985
  0.6593130000000000  9.5776599999999998 31.0350999999999999
 20.6650999999999989  8.0728000000000009 30.4178999999999995
  1.4310499999999999 14.6473999999999993 29.9185000000000016
  1.6792700000000000 14.4880999999999993 32.2167999999999992
  1.5764600000000000 12.1929999999999996 32.0617000000000019
  5.5709999999999997 13.4513999999999996 29.6680999999999990
  6.1379000000000001 11.0212000000000003 29.1309000000000005
  8.8291599999999999 13.4252000000000002 30.8004999999999995
  7.9550500000000000  9.4523499999999991 32.6914000000000016
 11.2788000000000004 12.6405999999999992 30.0262999999999991
 16.0115000000000016 13.8317999999999994 29.2929999999999993
 11.5797000000000008 15.4443000000000001 31.7118000000000002
 16.8651000000000018 16.1511999999999993 28.0350999999999999
 17.1326000000000001 15.7294999999999998 31.4706000000000010
 20.9116999999999997 11.1195000000000004 32.2597999999999985
 18.1040999999999990 14.1301000000000005 33.0850000000000009
 19.8780000000000001 13.2803000000000004 31.8140999999999998
 19.8458000000000006 14.4146999999999998 29.4969000000000001
  3.6351200000000001 15.2634000000000007 33.0938000000000017
  1.7833000000000001 18.3161999999999985 29.9359000000000002
  2.9855100000000001 17.3372999999999990 33.5337000000000032
  5.8906900000000002 18.4476000000000013 31.0893000000000015
  4.6799099999999996 16.3050999999999995 29.4257999999999988
  5.5956200000000003 14.2813999999999997 31.9292000000000016
  7.2285000000000004 15.7226999999999997 28.9114000000000004
  7.0027200000000001 16.2083000000000013 31.2028999999999996
  9.3140900000000002 17.9828000000000010 30.5814999999999984
 14.9544999999999995 16.4131999999999998 30.9563999999999986
 11.8298000000000005 17.2689999999999984 33.1957999999999984
 14.1974999999999998 18.0177000000000014 32.8918999999999997
 14.4377999999999993 18.8253999999999984 30.6121000000000016
 12.3543000000000003 20.7448000000000015 30.2577999999999996
 18.3205999999999989 17.7839999999999989 31.3466999999999985
 16.7016999999999989 19.3904999999999994 30.8693999999999988
 19.9876000000000005 16.7738000000000014 30.0361000000000011
  1.3142199999999999 17.9221000000000004 32.0885999999999996
  2.6798899999999999  0.2029310000000000 31.9545999999999992
  2.3605900000000002  0.2089790000000000 29.6953999999999994
  5.7988400000000002  1.8738699999999999 28.0528000000000013
  6.4721200000000003 20.6174999999999997 30.6388999999999996
  8.5897699999999997  0.3993260000000000 31.0808999999999997
 11.8926999999999996  0.3853750000000000 33.5281000000000020
 13.0086999999999993  2.8552000000000000 31.3394000000000013
 15.4520000000000000  0.5869520000000000 32.6448999999999998
 17.6720000000000006 21.0943000000000005 32.0897000000000006
 21.4439999999999991 19.2545000000000002 33.1233000000000004
 20.0203999999999986 20.5393000000000008 31.4089999999999989
  2.9259599999999999  2.4397799999999998 32.6970000000000027
  0.3068470000000000  1.2373200000000000 36.8352000000000004
  1.0247299999999999  3.1979000000000002 35.9660999999999973
  2.9992000000000001  3.4921199999999999 34.7941999999999965
  4.7541300000000000  2.2111800000000001 35.6976000000000013
  6.5611499999999996  3.2147800000000002 34.7073999999999998
  8.5470299999999995  1.4223900000000000 36.2317999999999998
 11.3188999999999993  3.7489300000000001 35.3252000000000024
 13.1532999999999998  3.3437800000000002 33.9932999999999979
 12.5602999999999998  1.6330199999999999 36.2218999999999980
 15.8863000000000003  3.9935299999999998 36.0088999999999970
 17.1488000000000014  2.3462499999999999 33.5251000000000019
 19.2106999999999992  3.6380100000000000 34.8575999999999979
 19.3580000000000005  1.1190000000000000 34.4033999999999978
  4.2798600000000002  8.8370099999999994 32.4949000000000012
  5.8360399999999997  6.9067299999999996 38.2124999999999986
  6.8270299999999997  5.4922300000000002 36.7359000000000009
  8.8362900000000000  6.3541900000000000 36.1739999999999995
  9.3372499999999992  3.1145200000000002 34.2629999999999981
  4.5613099999999998 12.9457000000000004 38.3588999999999984
 11.2355999999999998  8.1371199999999995 28.8197000000000010
 11.0630000000000006  6.3982599999999996 34.0664999999999978
  8.8402399999999997  5.4744999999999999 33.9369000000000014
 13.1287000000000003  7.4462099999999998 35.0305000000000035
 15.4642999999999997  6.1601600000000003 34.6169000000000011
 17.5797999999999988  4.7838799999999999 33.6311000000000035
 21.2326000000000015  4.6676599999999997 34.8603999999999985
 19.2224000000000004  7.4726299999999997 35.9337999999999980
 21.4244999999999983  6.8441200000000002 35.4943999999999988
  2.9116800000000000  7.5092499999999998 35.9431000000000012
  1.0037600000000000  9.1173000000000002 34.9660000000000011
  5.6105900000000002  9.4455299999999998 35.2978999999999985
  4.6235799999999996  8.6615900000000003 37.2755000000000010
  6.1811800000000003  7.9413099999999996 33.5825999999999993
  9.1012500000000003  8.6882999999999999 36.0326000000000022
 13.2096000000000000  9.8949499999999997 34.9564000000000021
 10.0077999999999996  8.6251400000000000 33.6978000000000009
 18.8922999999999988  9.8616600000000005 35.6298999999999992
 16.4783000000000008  7.7409200000000000 33.0936999999999983
 17.8690999999999995  9.6652100000000001 33.5399999999999991
 19.2745999999999995  7.1816599999999999 33.4945000000000022
  1.7096400000000000 10.9276999999999997 36.2772999999999968
  5.3712999999999997 13.9123000000000001 36.1711999999999989
  2.3357999999999999 12.0526000000000000 34.2826000000000022
  4.5001800000000003 11.1575000000000006 34.0953999999999979
  7.9571100000000001 11.6021999999999998 33.8706000000000031
 10.0909999999999993 12.9103999999999992 34.0116999999999976
 11.1250999999999998 10.6259999999999994 33.9273999999999987
 15.7515000000000001 10.9727999999999994 31.7258999999999993
 14.2857000000000003 14.7357999999999993 34.4502000000000024
 13.7842000000000002 14.7969000000000008 32.1462999999999965
 17.9080000000000013 15.5213000000000001 34.9680999999999997
 16.9860000000000007 12.1019000000000005 33.5713000000000008
 15.6867999999999999 13.0044000000000004 35.2920999999999978
 20.9192999999999998 10.7584999999999997 34.6015000000000015
  0.1912090000000000 12.8021999999999991 35.5371999999999986
  3.2199300000000002 14.0830000000000002 35.0202000000000027
 21.5941000000000010 14.5300999999999991 33.9206000000000003
  4.8785400000000001 18.6236999999999995 33.2229999999999990
  6.1352500000000001 13.0919000000000008 34.1398000000000010
  6.6973200000000004 15.8146000000000004 36.2988000000000000
 10.0243000000000002 18.4956999999999994 32.6732999999999976
  9.6121999999999996 14.8079999999999998 32.6865000000000023
 11.9352999999999998 17.2448000000000015 35.5878999999999976
 15.8553999999999995 16.5450000000000017 34.3566999999999965
 15.9367999999999999 18.3204999999999991 36.0176000000000016
 21.4395999999999987 15.9657000000000000 31.6632999999999996
 19.3797999999999995 18.2101000000000006 33.4853000000000023
 20.0946999999999996 16.2199999999999989 34.7805000000000035
 19.5756000000000014 15.7677999999999994 37.3113999999999990
 19.7078999999999986 18.2403000000000013 36.7571000000000012
  1.9670500000000000 18.2659999999999982 35.4129000000000005
  1.4784299999999999 21.3292000000000002 35.6674000000000007
  4.5208599999999999 20.9431000000000012 33.0707999999999984
  6.5697999999999999 17.7171999999999983 34.7389999999999972
  3.9405000000000001 21.6980000000000004 35.3534000000000006
  7.0734800000000000 19.6006000000000000 36.1066000000000003
  8.3413500000000003 16.7825999999999986 33.0720000000000027
  8.0632599999999996 21.3905999999999992 34.7777000000000029
 10.1890000000000001 20.4116999999999997 33.9733000000000018
 10.4413000000000000 20.1199000000000012 36.5369000000000028
 13.7970000000000006 20.5413999999999994 33.5163999999999973
 15.1100999999999992  2.0612800000000000 34.9241999999999990
 15.8088999999999995  0.1554460000000000 36.0602000000000018
 18.0062999999999995 19.0771000000000015 35.3346999999999980
 17.6251999999999995 21.2772000000000006 34.6126999999999967
  0.7468590000000001 21.3127999999999993 33.5324999999999989
 21.2386000000000017 20.0152000000000001 37.1766999999999967
 19.9494000000000007  0.3742220000000000 36.6081999999999965
  1.6552100000000001  3.6274799999999998 40.1409999999999982
  0.4134220000000000  0.7526920000000000 39.2096999999999980
  0.7207030000000000  4.4379900000000001 37.9480999999999966
  4.7744400000000002  2.0602800000000001 38.0429000000000030
  7.1580800000000000  1.8199200000000000 38.2449000000000012
  4.5202700000000000 21.5311999999999983 38.6736999999999966
 10.6440000000000001  0.6055310000000000 37.3425000000000011
 13.2024000000000008 21.0324999999999989 39.4140000000000015
 14.6072000000000006  4.7378299999999998 37.9889999999999972
 13.5874000000000006  1.7562700000000000 38.3817999999999984
 15.8602000000000007  2.3160200000000000 38.8740000000000023
 18.2605000000000004  3.8997999999999999 36.9551000000000016
 18.4371000000000009  1.8072200000000000 37.9855000000000018
  3.6817899999999999  5.9621000000000004 38.3768000000000029
  1.3421099999999999  6.6667699999999996 37.4305999999999983
  3.9596900000000002  3.8313000000000001 39.3969000000000023
  7.5949200000000001  4.1194899999999999 38.6326999999999998
 10.0007000000000001  4.2955699999999997 39.2102999999999966
 10.6943999999999999  5.2480200000000004 37.1163000000000025
  6.9123000000000001  6.0761000000000003 40.3237999999999985
 12.8260000000000005  6.4091300000000002 37.8477999999999994
 13.0038999999999998  8.6789600000000000 37.1296000000000035
 16.1500999999999983  6.4236100000000000 38.6073000000000022
 16.9570000000000007  7.3854100000000003 36.7310000000000016
 19.5172999999999988  7.4364200000000000 38.6505999999999972
 20.0813999999999986  4.9941100000000000 38.0384000000000029
 21.6428000000000011  7.4543699999999999 40.2156999999999982
  4.0565699999999998  9.5945800000000006 39.4703000000000017
  3.5194000000000001  7.4581600000000003 40.1970000000000027
  0.7647460000000000  9.9420500000000001 39.9971000000000032
  5.3100600000000000  6.9621100000000000 41.9463000000000008
  7.4803400000000000  8.2547899999999998 39.7560000000000002
  6.2797200000000002 10.3704000000000001 39.6394000000000020
  7.4851599999999996 10.5287000000000006 36.0688000000000031
  9.7790800000000004  8.4262099999999993 39.3018000000000001
 10.8317999999999994  9.5670500000000001 37.3699000000000012
 12.0899999999999999 10.9509000000000007 39.2060999999999993
 17.9349999999999987  7.9429699999999999 40.4964999999999975
 14.9997000000000007  8.4737399999999994 38.5287000000000006
 16.8767999999999994  9.8228299999999997 37.1097999999999999
 16.7153999999999989  9.9731299999999994 39.6261000000000010
 15.0137999999999998 11.0521999999999991 36.3796000000000035
 20.3637000000000015 10.6720000000000006 40.6951999999999998
  0.6910330000000000  9.1599699999999995 37.7441000000000031
 18.8262000000000000 11.1020000000000003 38.8761000000000010
 19.9914999999999985  9.4539600000000004 37.7175000000000011
  0.8709130000000000 13.1453000000000007 39.5927999999999969
  2.6758199999999999 11.3386999999999993 38.5857000000000028
  6.6470000000000002 11.9408999999999992 37.8179999999999978
  8.7893899999999991 12.1334999999999997 40.8205000000000027
  8.6471599999999995 12.8191000000000006 38.4465999999999966
 10.7173999999999996 13.9069000000000003 36.0891999999999982
 10.6705000000000005 11.8887999999999998 37.5037999999999982
 13.8491000000000000 14.2835000000000001 38.0234999999999985
 14.0860000000000003 11.9542000000000002 38.3890999999999991
 17.2132000000000005 14.0373000000000001 36.5726999999999975
 18.8878999999999984 14.1964000000000006 40.3031000000000006
 18.9212999999999987 13.3376000000000001 38.0514000000000010
 21.1827000000000005 13.4864999999999995 37.4973000000000027
  1.3522400000000001 15.8074999999999992 35.4057999999999993
  1.8901699999999999 15.2077000000000009 39.2747999999999990
  4.2296899999999997 15.2175999999999991 38.8937999999999988
  5.2056800000000001 16.8568999999999996 37.6837999999999980
  8.6736599999999999 15.0755999999999997 37.4765000000000015
 10.0922999999999998 16.8691999999999993 37.1692999999999998
  8.0063600000000008 15.7596000000000007 39.8984999999999985
 12.7543000000000006 15.1549999999999994 36.1144999999999996
 11.0419999999999998 16.5805000000000007 39.3924999999999983
 12.2089999999999996 14.6400000000000006 39.7665000000000006
 15.9914000000000005 17.4389000000000003 38.2704999999999984
 15.9452999999999996 15.0059000000000005 38.3853000000000009
 18.3618999999999986 17.9816000000000003 38.6974999999999980
 21.2130000000000010 17.3776000000000010 40.8320999999999970
 19.0032999999999994 16.6136000000000017 40.5720999999999989
  0.4216260000000000 15.8137000000000008 37.5441000000000003
  2.4947800000000000 18.6667999999999985 39.1646000000000001
  2.2701199999999999 20.9485999999999990 39.4953000000000003
  3.6675300000000002 18.4141000000000012 37.0974999999999966
  4.9819000000000004 20.2656999999999989 36.8288999999999973
  6.8276100000000000 17.7592999999999996 39.1880999999999986
  8.5030699999999992 18.6802999999999990 37.7916000000000025
  9.5255600000000005 19.7978999999999985 39.7173999999999978
 14.3598999999999997 20.1095000000000006 35.7498000000000005
 11.9368999999999996 18.9976999999999983 39.2682000000000002
 12.4913000000000007 19.1591999999999985 36.7361000000000004
 16.9042999999999992  0.0638226000000000 38.1150000000000020
 15.4047000000000001 18.5727000000000011 40.3171999999999997
 18.3430999999999997 20.2290999999999990 39.4613000000000014
 20.6938999999999993 20.7167999999999992 39.5634999999999977
  0.3363580000000000 17.9228999999999985 38.6719999999999970
  1.0787700000000000  1.6118800000000000 41.3391999999999982
  6.9368400000000001  1.2080900000000001 40.5542999999999978
  9.1956000000000007  0.2916650000000000 40.6248000000000005
 10.6072000000000006  1.9821000000000000 39.5165999999999968
 13.6795000000000009  0.3517620000000000 41.5268000000000015
 12.6852999999999998  2.2887000000000000 40.4110999999999976
 16.6284999999999989  2.3755199999999999 41.3524000000000029
 16.0735999999999990  0.1038610000000000 42.0326000000000022
 20.4643000000000015  0.8863490000000001 41.3671999999999969
 18.8602999999999987  2.3227400000000000 40.2899999999999991
  0.0439781000000000  5.2812299999999999 41.0604000000000013
  6.7731899999999996  5.0024199999999999 42.4016000000000020
  6.2190500000000002  3.5880999999999998 40.5760000000000005
  8.7751199999999994  6.2753399999999999 41.9386999999999972
 10.5434999999999999  6.2210599999999996 40.3252999999999986
 12.8294999999999995  6.5787699999999996 40.2173000000000016
 13.9560999999999993  4.4073500000000001 40.5523000000000025
 17.3508999999999993  5.5812200000000001 40.4754999999999967
 15.8458000000000006  4.5569499999999996 41.8843999999999994
 19.5939000000000014  4.5320099999999996 40.2909999999999968
  1.8676999999999999  8.3558800000000009 41.4568999999999974
  0.1441730000000000  7.0881299999999996 42.7038000000000011
  3.3534199999999998 10.1876999999999995 41.9966999999999970
  5.7167000000000003  9.4403600000000001 42.0795000000000030
  9.8391099999999998  9.8733599999999999 41.1572000000000031
  8.0973000000000006  8.5537500000000009 42.1090000000000018
 13.3617000000000008  8.9071999999999996 40.2526999999999973
 14.1934000000000005 10.5874000000000006 41.7969999999999970
 19.9011999999999993  8.4553600000000007 41.6503000000000014
  1.1151199999999999 13.8002000000000002 42.3982000000000028
  2.8272800000000000 12.3878000000000004 41.3141000000000034
  5.1170900000000001 13.2527000000000008 40.8526999999999987
  6.6531099999999999 11.6374999999999993 41.5508000000000024
 10.8644999999999996 13.2523000000000000 41.4754999999999967
 11.8551000000000002 11.1221999999999994 41.6557000000000031
 15.5165000000000006 11.8638999999999992 40.2190999999999974
 16.5206000000000017 14.1218000000000004 40.5371000000000024
 20.8047000000000004 12.9515999999999991 41.2862000000000009
  3.0667100000000000 17.7059999999999995 41.3185000000000002
  1.2870400000000000 15.9807000000000006 41.4046000000000021
  5.7326400000000000 15.5379000000000005 40.6863999999999990
  5.2238699999999998 17.3291000000000004 42.2051000000000016
  9.6397899999999996 16.6765000000000008 41.3019999999999996
 11.1279000000000003 15.2331000000000003 42.6285000000000025
 13.1797000000000004 15.8932000000000002 41.5506000000000029
 17.1336000000000013 17.5820000000000007 41.6490000000000009
 15.6346000000000007 15.7062000000000008 41.9166999999999987
  2.0733199999999998 19.7669999999999995 41.8023000000000025
  3.1112500000000001  0.1598760000000000 41.6302999999999983
  5.2895300000000001 21.1644000000000005 40.7212000000000032
  6.4238900000000001 18.9771999999999998 41.1738000000000000
  8.7901199999999999 18.8524999999999991 41.8111999999999995
 10.0347000000000008 20.6016000000000012 42.4440000000000026
 13.1811000000000007 18.2058000000000000 41.1336999999999975
 12.2177000000000007 20.2729999999999997 41.6818999999999988
 17.7393999999999998 20.0439000000000007 41.8363000000000014
 15.5046999999999997 20.8506999999999998 39.8498000000000019
 19.8568999999999996 20.6539000000000001 42.6460999999999970
 21.4799000000000007 19.5595999999999997 41.3556999999999988
 13.8246000000000002  2.2156099999999999  8.9182299999999994
  7.2820000000000000  9.4465900000000005  7.0988600000000002
  4.0642600000000000 18.9097000000000008  7.4177299999999997
  0.6957710000000000  1.2414700000000001 11.6064000000000007
  2.3292099999999998  3.4834900000000002  7.8475299999999999
 15.2652999999999999 21.3158999999999992 11.1592000000000002
  1.3738200000000000 11.1828000000000003 10.1539000000000001
 13.8671000000000006 10.2218999999999998 10.8707999999999991
 18.1431000000000004  8.7069600000000005  8.0718499999999995
  8.8854299999999995 10.0665999999999993  8.7190399999999997
  4.6497099999999998 17.5517000000000003 11.0992999999999995
  6.5123499999999996 21.1698999999999984  9.7468599999999999
 10.6280999999999999  7.7287400000000002 14.5068000000000001
  4.6273700000000000 14.5868000000000002 12.9106000000000005
 17.1744999999999983  8.6169600000000006 11.0779999999999994
  2.7096399999999998  7.6815699999999998 19.6402000000000001
  7.3545800000000003 12.5915999999999997 14.4420000000000002
  9.9515300000000000 17.3707999999999991 17.9962000000000018
 19.4581000000000017 11.3320000000000007 16.7299000000000007
  2.9272000000000000 19.0657999999999994 16.6002000000000010
 12.8583999999999996 18.5579999999999998 11.8849000000000000
 15.5909999999999993 20.8812999999999995 20.0409000000000006
 10.4869000000000003 21.3431999999999995 20.9345999999999997
 15.9223999999999997  9.6142000000000003 18.6977000000000011
  4.3673999999999999 11.8254999999999999 14.3577999999999992
  2.1389700000000000 16.7273999999999994 21.2929999999999993
 20.9482999999999997 18.3014000000000010 15.2318999999999996
 12.9715000000000007 18.6274000000000015 18.5537999999999990
 16.9460000000000015 11.7748000000000008 23.9925999999999995
  1.1185099999999999 14.3719999999999999 23.3607000000000014
  3.3720500000000002  6.4909600000000003 28.5028000000000006
 20.9325000000000010  1.3270599999999999 27.3310999999999993
  8.1935199999999995 14.7866999999999997 25.3659999999999997
 19.5939000000000014 14.9840999999999998 33.5735000000000028
 10.0714000000000006 16.5291999999999994 33.5664999999999978
 21.0061999999999998 14.7664000000000009 36.0388000000000019
 10.2180999999999997  0.8002990000000000 33.0253000000000014
 14.5462000000000007  1.9686300000000001 40.9979000000000013
  3.3091699999999999  2.6269100000000001 25.8044000000000011
Cartesian
  0.0000000000000000  0.0000000000000000  0.0000000000000000
  0.0000000000000000  0.0000000000000000  0.0000000000000000
  0.0000000000000000  0.0000000000000000  0.0000000000000000
  0.0000000000000000  0.0000000000000000  0.0000000000000000
  0.0000000000000000  0.0000000000000000  0.0000000000000000
  0.0000000000000000  0.0000000000000000  0.0000000000000000
  0.0000000000000000  0.0000000000000000  0.0000000000000000
  0.0000000000000000  0.0000000000000000  0.0000000000000000
  0.0000000000000000  0.0000000000000000  0.0000000000000000
  0.0000000000000000  0.0000000000000000  0.0000000000000000
  0.0000000000000000  0.0000000000000000  0.0000000000000000
  0.0000000000000000  0.0000000000000000  0.0000000000000000
  0.0000000000000000  0.0000000000000000  0.0000000000000000
  0.0000000000000000  0.0000000000000000  0.0000000000000000
  0.0000000000000000  0.0000000000000000  0.0000000000000000
  0.0000000000000000  0.0000000000000000  0.0000000000000000
  0.0000000000000000  0.0000000000000000  0.0000000000000000
  0.0000000000000000  0.0000000000000000  0.0000000000000000
  0.0000000000000000  0.0000000000000000  0.0000000000000000
  0.0000000000000000  0.0000000000000000  0.0000000000000000
  0.0000000000000000  0.0000000000000000  0.0000000000000000
  0.0000000000000000  0.0000000000000000  0.0000000000000000
  0.0000000000000000  0.0000000000000000  0.0000000000000000
  0.0000000000000000  0.0000000000000000  0.0000000000000000
  0.0000000000000000  0.0000000000000000  0.0000000000000000
  0.0000000000000000  0.0000000000000000  0.0000000000000000
  0.0000000000000000  0.0000000000000000  0.0000000000000000
  0.0000000000000000  0.0000000000000000  0.0000000000000000
  0.0000000000000000  0.0000000000000000  0.0000000000000000
  0.0000000000000000  0.0000000000000000  0.0000000000000000
  0.0000000000000000  0.0000000000000000  0.0000000000000000
  0.0000000000000000  0.0000000000000000  0.0000000000000000
  0.0000000000000000  0.0000000000000000  0.0000000000000000
  0.0000000000000000  0.0000000000000000  0.0000000000000000
  0.0000000000000000  0.0000000000000000  0.0000000000000000
  0.0000000000000000  0.0000000000000000  0.0000000000000000
  0.0000000000000000  0.0000000000000000  0.0000000000000000
  0.0000000000000000  0.0000000000000000  0.0000000000000000
  0.0000000000000000  0.0000000000000000  0.0000000000000000
  0.0000000000000000  0.0000000000000000  0.0000000000000000
  0.0000000000000000  0.0000000000000000  0.0000000000000000
  0.0000000000000000  0.0000000000000000  0.0000000000000000
  0.0000000000000000  0.0000000000000000  0.0000000000000000
  0.0000000000000000  0.0000000000000000  0.0000000000000000
  0.0000000000000000  0.0000000000000000  0.0000000000000000
  0.0000000000000000  0.0000000000000000  0.0000000000000000
  0.0000000000000000  0.0000000000000000  0.0000000000000000
  0.0000000000000000  0.0000000000000000  0.0000000000000000
  0.0000000000000000  0.0000000000000000  0.0000000000000000
  0.0000000000000000  0.0000000000000000  0.0000000000000000
  0.0000000000000000  0.0000000000000000  0.0000000000000000
  0.0000000000000000  0.0000000000000000  0.0000000000000000
  0.0000000000000000  0.0000000000000000  0.0000000000000000
  0.0000000000000000  0.0000000000000000  0.0000000000000000
  0.0000000000000000  0.0000000000000000  0.0000000000000000
  0.0000000000000000  0.0000000000000000  0.0000000000000000
  0.0000000000000000  0.0000000000000000  0.0000000000000000
  0.0000000000000000  0.0000000000000000  0.0000000000000000
  0.0000000000000000  0.0000000000000000  0.0000000000000000
  0.0000000000000000  0.0000000000000000  0.0000000000000000
  0.0000000000000000  0.0000000000000000  0.0000000000000000
  0.0000000000000000  0.0000000000000000  0.0000000000000000
  0.0000000000000000  0.0000000000000000  0.0000000000000000
  0.0000000000000000  0.0000000000000000  0.0000000000000000
  0.0000000000000000  0.0000000000000000  0.0000000000000000
  0.0000000000000000  0.0000000000000000  0.0000000000000000
  0.0000000000000000  0.0000000000000000  0.0000000000000000
  0.0000000000000000  0.0000000000000000  0.0000000000000000
  0.0000000000000000  0.0000000000000000  0.0000000000000000
  0.0000000000000000  0.0000000000000000  0.0000000000000000
  0.0000000000000000  0.0000000000000000  0.0000000000000000
  0.0000000000000000  0.0000000000000000  0.0000000000000000
  0.0000000000000000  0.0000000000000000  0.0000000000000000
  0.0000000000000000  0.0000000000000000  0.0000000000000000
  0.0000000000000000  0.0000000000000000  0.0000000000000000
  0.0000000000000000  0.0000000000000000  0.0000000000000000
  0.0000000000000000  0.0000000000000000  0.0000000000000000
  0.0000000000000000  0.0000000000000000  0.0000000000000000
  0.0000000000000000  0.0000000000000000  0.0000000000000000
  0.0000000000000000  0.0000000000000000  0.0000000000000000
  0.0000000000000000  0.0000000000000000  0.0000000000000000
  0.0000000000000000  0.0000000000000000  0.0000000000000000
  0.0000000000000000  0.0000000000000000  0.0000000000000000
  0.0000000000000000  0.0000000000000000  0.0000000000000000
  0.0000000000000000  0.0000000000000000  0.0000000000000000
  0.0000000000000000  0.0000000000000000  0.0000000000000000
  0.0000000000000000  0.0000000000000000  0.0000000000000000
  0.0000000000000000  0.0000000000000000  0.0000000000000000
  0.0000000000000000  0.0000000000000000  0.0000000000000000
  0.0000000000000000  0.0000000000000000  0.0000000000000000
  0.0000000000000000  0.0000000000000000  0.0000000000000000
  0.0000000000000000  0.0000000000000000  0.0000000000000000
  0.0000000000000000  0.0000000000000000  0.0000000000000000
  0.0000000000000000  0.0000000000000000  0.0000000000000000
  0.0000000000000000  0.0000000000000000  0.0000000000000000
  0.0000000000000000  0.0000000000000000  0.0000000000000000
  0.0000044390403418  0.0001504574142781  0.0001550873590885
  0.0001982732590351 -0.0001323223870393 -0.0000911514103614
  0.0000688092348229 -0.0000366691628983 -0.0000491728851700
 -0.0001256182987360  0.0000595436026349 -0.0000105106925405
 -0.0000072284205804  0.0001329813466263 -0.0000005049618800
  0.0000433865308884  0.0000044463262240  0.0000499886886238
  0.0001841734619904  0.0000642797849386 -0.0000194935391846
 -0.0000313295803454 -0.0000312628230016 -0.0001250103044330
 -0.0000657157856507 -0.0000810312123910 -0.0000955017639309
  0.0001329260744169  0.0001438466426918 -0.0001188366857753
 -0.0000578692853837 -0.0000724812476411  0.0000963552529820
 -0.0000261237996083  0.0001595665615097  0.0000524335866121
  0.0001480972191561 -0.0001294478732419 -0.0000848920121061
 -0.0000797495431725  0.0000140637265444  0.0000074651220224
  0.0000010230993626  0.0000612304817518  0.0000855118504540
  0.0000846960470002  0.0000291759022966  0.0000691616848852
 -0.0001341671867545 -0.0000835769642158 -0.0001501293701264
 -0.0000532138579313 -0.0000369003012284 -0.0000069738095069
  0.0000214873585188  0.0000699764116076  0.0000551814050205
  0.0001915627103436  0.0000768879501513  0.0000019532552751
  0.0000166375092754  0.0001613137375823  0.0000315634105038
  0.0000501537874310  0.0000091693365142  0.0000680368595336
  0.0000468582716753 -0.0001853944753427 -0.0001038374591419
  0.0000234573103080  0.0001370811807014 -0.0000525717671355
 -0.0000510647021542  0.0000226501924871 -0.0000157148581805
 -0.0001438279793484 -0.0000841860352501 -0.0000080771002314
 -0.0001011391703756  0.0001385724536229 -0.0000874654000356
  0.0000724274110735 -0.0000910458906890 -0.0001082201146519
 -0.0001082380601745  0.0000202129034004  0.0000472135930212
 -0.0000894142837814 -0.0001578075413922  0.0000039683651771
 -0.0000342881150792 -0.0000046581910628  0.0000407603831227
 -0.0000265988175895  0.0000539245006231 -0.0000972715513619
  0.0001673064653730  0.0001725878326509  0.0001012403831227
 -0.0000165764944988  0.0000190811151860  0.0000006976644899
  0.0001095046551540  0.0000885094705359 -0.0002438372996261
  0.0000854350436176  0.0000233284973473 -0.0001567326045932
 -0.0002155257254762 -0.0001393868214349 -0.0001269308342532
  0.0001401954466797 -0.0000537109489051  0.0000340606376357
 -0.0001851346241766  0.0000596932682927  0.0000396563745772
 -0.0000142556359623  0.0001686261790992  0.0000054797370839
 -0.0000959374812177  0.0001592880470002 -0.0000553404023500
  0.0000179865100944  0.0000495246174114 -0.0001297289001246
  0.0002084569841552  0.0000293987139042 -0.0001014815709453
 -0.0000384278241054  0.0000047986686131 -0.0000834947737226
  0.0000474102759480 -0.0000977144468578 -0.0001031706035250
  0.0000552413430657 -0.0000672142367812 -0.0000289052838170
  0.0000862016763397  0.0001566173943386  0.0000729517792416
  0.0000839024959943  0.0002161021356596 -0.0000846335965818
 -0.0000228133890689  0.0000343320457184  0.0001587249165035
 -0.0001324171393983  0.0000197350859177  0.0000354706173402
  0.0000027238288339 -0.0000428998483176  0.0000135386046644
 -0.0000371375410361  0.0000919105059640  0.0001793019704469
  0.0000172932386683  0.0000425972868079 -0.0000431905657824
 -0.0001211362250312 -0.0000010375706320 -0.0000566687299270
  0.0000031393358732  0.0000772518853481  0.0000202405395051
 -0.0001329494035962  0.0000022503792914 -0.0001788167235179
  0.0001501236275592 -0.0000626492547623  0.0000973200042727
  0.0000042809761795 -0.0000485221805234 -0.0000425308883746
 -0.0001102185280399  0.0000588713633612  0.0000120821819477
  0.0000522907402528  0.0001310148762685 -0.0001581883453801
 -0.0001339672736336 -0.0000148676141713 -0.0000488778607798
  0.0000201726336479  0.0000032305278405 -0.0001037017909916
  0.0001033540067652 -0.0000331808404486  0.0001053211949439
 -0.0000399305821613 -0.0001275058087947 -0.0000395210653374
  0.0000498921417127  0.0000522365447748  0.0002679528517002
  0.0000501825002670  0.0000619529684885 -0.0001493552002848
  0.0000396226369948  0.0000512344667972 -0.0000111810654798
  0.0001487540252804 -0.0001352417646430 -0.0000275786072281
 -0.0000931031653908 -0.0001465876418017 -0.0000528316183016
  0.0000916563973651  0.0000136841069610 -0.0000904924507744
  0.0001920282171978 -0.0000311330050917  0.0000063413734022
  0.0000581452875200  0.0000523262723874 -0.0000465894477479
 -0.0000214203140466 -0.0000943198718177 -0.0001179257710522
  0.0001439690311554 -0.0000114970861314  0.0000902627480862
  0.0000785170446858 -0.0000816162364251 -0.0000321116821079
  0.0000545820245683  0.0000983411045042  0.0000459602777283
  0.0000632317664234 -0.0001320919665302  0.0000003858969272
 -0.0000584144703578  0.0000209247663878 -0.0001359448702154
 -0.0000087519954424  0.0001499215609756  0.0000852972220046
  0.0000141196089015  0.0000748242150614  0.0000523151461634
 -0.0001037581399323  0.0000881799907424 -0.0000888669453445
 -0.0000750277172868 -0.0000377860922200 -0.0000166089041125
 -0.0000936368652306  0.0000952957493324  0.0001089648538366
 -0.0000877101769628  0.0000903998518782  0.0000454545729037
 -0.0000604372896564  0.0000517850354282  0.0001298319074239
  0.0000419149980417  0.0001012726850632 -0.0001004708791170
  0.0000050510185508 -0.0001350048837458  0.0001149120000000
  0.0000070333527506 -0.0000978429367990  0.0000064128683639
 -0.0000156733681325  0.0000872328260637  0.0002227182909026
 -0.0000318001119459 -0.0001296761402884  0.0000884391240876
  0.0000643809976856  0.0000015022232793 -0.0000599287135482
 -0.0000968871582695 -0.0000786290247463 -0.0000143671135482
  0.0000872913284672  0.0000315447830515 -0.0000443670742389
  0.0000684754481040  0.0002035915940894 -0.0000147381192808
  0.0000274684217198  0.0000448831874666 -0.0000847692647321
  0.0001179390507388 -0.0000192966050205  0.0002372193498309
 -0.0002547991426028 -0.0000552740039167 -0.0000561544112516
  0.0000618815453089  0.0001820128210789  0.0000844322478191
 -0.0001054521972583 -0.0000896163503650 -0.0000020480184013
 -0.0000420556909382 -0.0000940883745772 -0.0000990531828378
  0.0001922780188713 -0.0001617056677942  0.0000762135574150
  0.0000001061334093 -0.0000077141340929  0.0000654096350365
 -0.0001003628470714 -0.0000576883945166  0.0000945262453267
 -0.0000862978643404  0.0000624769777461  0.0002248674466797
  0.0000553906498131  0.0001845481645006  0.0001369089036852
  0.0000384120320456  0.0001078332091864 -0.0000054465737582
 -0.0002254115549226  0.0001860268755563 -0.0001789767975788
 -0.0000661741142959 -0.0001639650090796  0.0000163906147766
 -0.0001729259262952  0.0000458928025636  0.0000469002641980
  0.0000724930916860 -0.0000024318336479 -0.0001766521345914
 -0.0000228081130853 -0.0000632321253338  0.0000173734192630
  0.0001073142246751 -0.0000309617689158  0.0000186579956560
 -0.0000562200918640 -0.0001803959294997  0.0000845273590885
  0.0001271451037921 -0.0000378402876981 -0.0001277143357664
  0.0000630128310486  0.0000581452875200 -0.0000284848561154
  0.0000082219564892  0.0001023748990564 -0.0001694915121951
  0.0000165283646074  0.0000739976442941 -0.0000565355741499
  0.0000521927576998 -0.0001732586362827  0.0001121853573082
  0.0000958832857397 -0.0000060073354460  0.0000300307193164
  0.0001502553476945  0.0001520448752003 -0.0001355414548691
  0.0000157279225209 -0.0001464753028307 -0.0000356211802742
  0.0002742165568809  0.0001137362093644  0.0000960006494570
  0.0000625476831049 -0.0000287003100588 -0.0000511788356774
 -0.0000500339113406 -0.0001754501434930 -0.0000507707544953
 -0.0000189371562044  0.0001650754780132  0.0001337088581093
 -0.0000392464988428  0.0000777601025458 -0.0001039627188891
  0.0000588634673313 -0.0000025117450596 -0.0000169812019227
 -0.0000508098757344  0.0002152705401460 -0.0000493139369770
  0.0000414329813067 -0.0000198479273634 -0.0000737514317251
 -0.0001069657226277  0.0000406781926295  0.0000712415709453
  0.0000858503030087  0.0001509279458786 -0.0000802050005341
 -0.0000506763610468 -0.0000011388802848 -0.0000811442691828
 -0.0001239787957985  0.0000082287757878  0.0001428370275948
  0.0000518514338615 -0.0000735630037387 -0.0000274111037208
 -0.0000133792484244 -0.0000306267977924  0.0001647520996973
 -0.0000571561303187  0.0001239400334698  0.0000110792066940
  0.0001105853345202 -0.0001195857318853  0.0001091967099875
  0.0000109066066584 -0.0001777356852412  0.0000797100630230
  0.0001906194936799 -0.0000186908000712 -0.0000257923099163
 -0.0001006754580737 -0.0000853575189603  0.0000510661377960
  0.0000239901846537 -0.0000048943182482 -0.0000456648944276
 -0.0000609322271675 -0.0000367980117500 -0.0000215142409115
  0.0000527609129429  0.0000348619411074  0.0000077916946413
 -0.0000920307409649  0.0000533204543351  0.0000719525725476
 -0.0000899953598006 -0.0000351220794018 -0.0001326622752359
  0.0000078024978458 -0.0000308932170198  0.0001114029325263
  0.0001078511547089 -0.0000003196958946 -0.0002198520320456
  0.0000247886527328  0.0002065450681859 -0.0000105349548870
 -0.0000446344625245 -0.0000648325070322  0.0001116495040057
  0.0000544409727613 -0.0000513220409471 -0.0000355808746306
 -0.0001171885689870  0.0001198470186933 -0.0001627357407869
  0.0001105031440271 -0.0000091901174292  0.0000143405541748
  0.0000173991531422  0.0001740600833185 -0.0000279574730995
 -0.0000469573309596  0.0000497076617411 -0.0000412513726188
  0.0001934861114474 -0.0001142731393983  0.0000426679921666
 -0.0000895076004985  0.0000300517873598 -0.0000094348584654
 -0.0001180743599786 -0.0000419677578779 -0.0000483796930746
 -0.0000698285405020  0.0000686667473740  0.0000747459725832
 -0.0000085654337903  0.0000970565640021 -0.0000469580487805
  0.0000135045440627 -0.0000230061598718  0.0001456469375111
  0.0001444855032936  0.0000660502901905 -0.0000875806102902
 -0.0000575627758590 -0.0000705237500445 -0.0000717487114118
 -0.0000129413417839  0.0001165917009080  0.0000566733957629
 -0.0000373640135304 -0.0000503407797757 -0.0000119492774079
 -0.0001293689129429 -0.0000023926370376  0.0000985492725654
 -0.0000463256485669  0.0000195181245505 -0.0001351226063735
 -0.0000581381093110  0.0000489345686309  0.0000315127682393
 -0.0001020001965462  0.0000632601203489 -0.0000757132362471
  0.0001454125689870 -0.0000032022564643  0.0001571880619548
  0.0001036231896030  0.0001118260879473  0.0000548770489585
 -0.0001465244735624 -0.0000124327297846  0.0000440271860424
 -0.0000128081501157 -0.0000741160847427 -0.0000292642301584
 -0.0000963828890867  0.0000722059633256 -0.0000638541171444
 -0.0000389636774079 -0.0001071125170020 -0.0000813495659605
  0.0000744997600142 -0.0001330692796867  0.0000210270199751
  0.0000088287304967 -0.0000544531757166  0.0000340476091864
  0.0001913886387751  0.0000419656044152  0.0000442683738651
  0.0000162595047890  0.0001003108050561 -0.0000807232672245
  0.0000871125910628  0.0000111339046466 -0.0000019788635357
  0.0000140744938579  0.0001470628392380 -0.0000009053444330
 -0.0000080624566851  0.0000041214045932 -0.0000114803967954
 -0.0000628947495104  0.0000489815858999  0.0000156245204202
 -0.0001533534627025  0.0001072004500623 -0.0001864270607086
  0.0001365546590707  0.0001748791169664 -0.0000791602122129
 -0.0000471619099163 -0.0001172614278084 -0.0001107942204023
  0.0001066082478191 -0.0000183693598718 -0.0001818287000178
  0.0001182846815026  0.0000262216027061 -0.0000394611272921
  0.0000262345952644 -0.0000221743849030 -0.0001543566174114
 -0.0000897017710522 -0.0000145958112872  0.0000493103478725
 -0.0002112952479972  0.0002253814064447 -0.0000863524187289
 -0.0000314771643226 -0.0000245393535339 -0.0001113243311376
  0.0002024319544241  0.0000156726144205  0.0000790424895852
  0.0000957045483354  0.0001218594295887 -0.0001479034075129
 -0.0001460686572904 -0.0000418159387573 -0.0001020888474275
 -0.0000628053808083  0.0000216387110557 -0.0001176361303187
  0.0000373722684707 -0.0001730081167883  0.0000511648381698
  0.0000554035705893 -0.0000011641583479 -0.0001348821363717
 -0.0001470079259391  0.0000882137283247 -0.0000090157228414
  0.0000710574498843  0.0000742912330425 -0.0000000620954559
 -0.0000068030399145  0.0000346760972761  0.0001495999772120
 -0.0000184115677408  0.0000424185494036  0.0000380531215952
 -0.0000601469311020 -0.0000396678597116  0.0000637676197258
  0.0000670290389888 -0.0000027427398255  0.0001941798853481
 -0.0000539183991455 -0.0000048086822147  0.0001515890589283
  0.0000023030206872  0.0000066427146163 -0.0000060558960299
 -0.0001323288474275 -0.0000723796759836 -0.0000992581207050
  0.0001629051465195  0.0000292649479793  0.0000116341540324
 -0.0000426654797935  0.0000415492682927  0.0002078615517180
 -0.0000293242758768  0.0000952451429589 -0.0000787733067474
 -0.0000661087925939  0.0000034428233719  0.0000650701057504
 -0.0001304528225031 -0.0000565872572548 -0.0000588498287342
  0.0000021501068898 -0.0000530387096315  0.0000941073968310
 -0.0001933364457896 -0.0000011373872174 -0.0000285609451309
 -0.0000741311589817  0.0000708607669575  0.0001119660630230
  0.0000335671716575 -0.0000101614726722 -0.0000839412583229
  0.0001494678981663 -0.0001084429980417 -0.0000969033092398
  0.0000102069107353  0.0000461871091330 -0.0000098632898700
  0.0000408748755563  0.0000268199782090 -0.0000533714196190
  0.0000800054463237 -0.0000311442389888  0.0001151621605839
 -0.0001267675299982  0.0000168893567385 -0.0000254601382945
  0.0000230982562934 -0.0000129727464483 -0.0000677253252626
  0.0000076824781912 -0.0001235498978102 -0.0001337831525725
 -0.0001292720071212  0.0000239297441339  0.0000353036880897
 -0.0000148462948905  0.0000653741029019  0.0000430602812889
  0.0000213862534449 -0.0000997907438134  0.0001601052860958
 -0.0000122676309774 -0.0001080510678298 -0.0001616137867189
 -0.0000912931799893  0.0001309111511483  0.0000624647747908
 -0.0001185718098629 -0.0000866603638953 -0.0001083615253694
 -0.0000135562630586  0.0000071758401994 -0.0000621342182660
  0.0001962436204380  0.0000156469882143 -0.0000231941212747
  0.0000606888858821  0.0000170867574862  0.0001036906647677
  0.0000490027616165  0.0000563884208652  0.0000934846871996
  0.0001461027537832  0.0001848033498309 -0.0001315159152573
  0.0000626212597472  0.0000265010144917 -0.0000790525390778
  0.0001505543200997  0.0001190279850454 -0.0000946906263130
 -0.0000342313713370  0.0000533771621862 -0.0000170834914011
 -0.0000499007555635  0.0000179020943564  0.0001046094755207
  0.0000003414573530 -0.0001937958511661  0.0000936806523055
  0.0000862673569521  0.0000335136222183 -0.0000272777325975
  0.0000879711048602 -0.0000275532681503  0.0000727741185686
 -0.0000064252507744  0.0000010630030265 -0.0001116925732597
  0.0000823896884458 -0.0000397396418017 -0.0000194028784048
 -0.0002051919757878  0.0001255827666014  0.0000511153085277
 -0.0000802681687734 -0.0000515998376357  0.0001072155243012
 -0.0001250723959409  0.0001126214335054  0.0000609196653018
  0.0000890392223607  0.0000807340345380 -0.0001666281246217
 -0.0001249937945523  0.0001215536378850 -0.0001103696293395
 -0.0000448630884814  0.0000240099606195  0.0000688415367634
  0.0002052214064447 -0.0000360661933416  0.0000001009751483
  0.0001170209578067 -0.0000358484782624  0.0000418295773545
 -0.0002012256564002 -0.0000187230302297  0.0000363558340751
  0.0000371676895140 -0.0000734783008724 -0.0000080093020474
 -0.0000186520377426  0.0000164487223785  0.0000508590464661
 -0.0000296440291971  0.0000201261547445 -0.0001042577432793
  0.0000082662819299 -0.0001046905892825  0.0000290817959765
  0.0000198942627025 -0.0001931724237137  0.0000082191210967
 -0.0000884326636995 -0.0001846766544419 -0.0000401362378494
 -0.0000899982310842  0.0000308617046822  0.0001524192188001
  0.0000005578150329 -0.0001511472401638  0.0001305665971159
  0.0000137834533737  0.0000516547509347 -0.0000901019562044
 -0.0001053671354816 -0.0000878889143671  0.0000034598608510
  0.0000643878169842 -0.0000507786505252  0.0000117443036496
 -0.0000459469980417  0.0000025536047855 -0.0000798378351433
  0.0000864285077443 -0.0000061613080292 -0.0000418288595336
  0.0000879768474275 -0.0001247996239986  0.0001998280591063
 -0.0000298631440271 -0.0001105752850276  0.0000433707388286
 -0.0002257952301941  0.0000005434945060 -0.0000191309319566
  0.0001488487776393  0.0000463762549404 -0.0000141489677764
 -0.0001348527057148  0.0001193693088837  0.0000173889241944
  0.0000901514858465 -0.0000982883446680  0.0000302155223073
  0.0001540874345736  0.0000783688146698  0.0000864726537297
 -0.0001627149239808  0.0000731703557059 -0.0000708862495994
 -0.0000519964336835 -0.0001898758312266  0.0000181822598540
  0.0001594491977924 -0.0000144578820011 -0.0000864909581627
 -0.0000496936642336 -0.0000347241553854 -0.0001123766565782
  0.0001401222289478 -0.0001808696912943  0.0000289840287698
 -0.0001500608182304 -0.0000280031623999  0.0001841504917216
 -0.0000076199559907  0.0000252148947837  0.0001423367064269
 -0.0000054462148478  0.0000193303426028 -0.0000009845380239
 -0.0000616855802030  0.0002006097660673  0.0001062669239808
 -0.0000180822315115 -0.0000477978992345  0.0002812888873064
 -0.0003113232316183 -0.0000258297801673 -0.0000383022054477
 -0.0000326067631832  0.0000770584326153  0.0000151293316717
 -0.0001053165291081  0.0000661737553854 -0.0001377437293929
 -0.0001548698593555  0.0000685885048959  0.0001064700672957
 -0.0001107385892825 -0.0000422979554923  0.0001070543735090
 -0.0000342420668684  0.0000032859687378  0.0002422024625245
  0.0000397985031155  0.0000755495730817 -0.0001209377475521
 -0.0001875045098807  0.0001174268855261  0.0000376084315471
  0.0001066886437600 -0.0000031765118177  0.0000125215960121
  0.0001074172319744 -0.0000171825865765  0.0000043515020830
  0.0000200209580915 -0.0001843202563646 -0.0000296612927897
 -0.0000848938066584 -0.0000407747395407 -0.0000705704084031
 -0.0000669583336301  0.0000740583001602 -0.0000075748050561
 -0.0000149939865409 -0.0000541258493858  0.0002478499184618
 -0.0000998051002314  0.0001375032593911 -0.0001081318226811
 -0.0001960770859890 -0.0000536549588748 -0.0000340280844579
  0.0000493300879473  0.0001251355641802 -0.0001889344091152
 -0.0000022824479402  0.0000004726922414 -0.0000167979781378
 -0.0000714709147232 -0.0000886157080292 -0.0001504480826064
  0.0000876118354994  0.0000804501363717 -0.0000989469453445
  0.0001084096193698  0.0000566278141357  0.0001011337867189
 -0.0000474892362471 -0.0000375743350543 -0.0001300759665302
 -0.0001330678440449  0.0000658019241588  0.0001861969991098
 -0.0000962963916682 -0.0000881889635036 -0.0000164828188713
 -0.0001580946697525  0.0000634944888731  0.0000981347309952
 -0.0000157850251736  0.0001962210090796 -0.0001247640918640
  0.0000084750242478 -0.0002445515314225 -0.0000712146526616
  0.0000128115238740  0.0000083809179277  0.0000165338200463
 -0.0000401064482820 -0.0000220534320812 -0.0000329313976856
 -0.0000864812675806 -0.0000201098602101 -0.0000744132625957
 -0.0000302050780132  0.0000099540942140  0.0000092260802564
 -0.0000204470565782  0.0001311717201353 -0.0000642255894606
 -0.0000134935614029  0.0000852667146163  0.0001051291778529
 -0.0000075071863272 -0.0000379404237137  0.0000429938828556
 -0.0000314831940182  0.0000857085333808 -0.0000859127534271
  0.0000286616912943  0.0001287892725654  0.0000879775652484
  0.0000147161539612  0.0000577325405020 -0.0000858926544419
  0.0000431195015133  0.0000706016336122 -0.0001039630777995
 -0.0000286318299448  0.0000349325387929 -0.0000265167347694
  0.0001318231426028 -0.0000055661986114  0.0000315900057682
  0.0000095026207584  0.0000231496522699  0.0000031541445184
  0.0001188862154175  0.0000417150849208 -0.0001697416727791
 -0.0000580268470714  0.0001011915713014  0.0000161903786363
 -0.0001052329029731  0.0000380861413566  0.0001307227231618
 -0.0000435096371729  0.0000551146476767  0.0000051458785829
 -0.0000907698885526 -0.0000817149367990 -0.0000524267673135
 -0.0001052856628093 -0.0001745306149190 -0.0000984021192808
 -0.0000866862054477 -0.0000574716126046  0.0000122903858999
  0.0000371375410361  0.0000493200384547  0.0000787040370304
  0.0001122901591597  0.0000925368047000 -0.0000860789289656
  0.0000561838419085 -0.0000444618265978 -0.0000451617019761
 -0.0001863419989318 -0.0001445443646074  0.0000393032066940
  0.0000926904183728 -0.0000623969407157 -0.0000206986528040
 -0.0000307493657112 -0.0000530175339149 -0.0001862547836924
  0.0001385742481752 -0.0000173682150614 -0.0000592780089015
  0.0001905006943208 -0.0001504531073527  0.0001346452554745
 -0.0000176674028129 -0.0000980037286808  0.0000743583492968
 -0.0000213361136550  0.0001392464874488  0.0000117800870215
 -0.0000304166916147  0.0001988019341285  0.0000678606345024
  0.0000954931500801  0.0001017424988428  0.0000957540779776
 -0.0000106495191027 -0.0000105958260993 -0.0001525462730995
 -0.0001377641872886 -0.0000232008329001  0.0000896755705893
 -0.0000822820153107 -0.0000384127498665  0.0000886584183728
 -0.0001008735766423 -0.0002320671903151  0.0001656698337191
 -0.0000339129459854 -0.0000567487669575 -0.0001577415018693
  0.0000510772640199  0.0000655488922913  0.0000408712864518
  0.0001050932868079 -0.0001332526829268  0.0001050276061955
 -0.0000106417666370  0.0000909367819121 -0.0000420201588036
  0.0000326108547623 -0.0001380760804700 -0.0001580731351255
 -0.0000548009599430  0.0000526640071212 -0.0001397712145273
  0.0000451272465729 -0.0000782123297134  0.0001351882869859
  0.0000340453839416  0.0000461225052519  0.0002419935766423
  0.0000759885205626 -0.0000292166386327  0.0000556849563824
 -0.0000494919565604 -0.0000502226982375 -0.0000522139334164
  0.0000585677251202  0.0000048129532491  0.0002660344753427
 -0.0000762171465195  0.0001933856165213  0.0001734678810753
 -0.0000261110941784  0.0000335004502047  0.0000058099346982
  0.0000396430948905 -0.0000040678910450 -0.0000220312873064
  0.0001045495374755 -0.0000144181506142  0.0000415155307103
  0.0001083877258323  0.0001057457860068 -0.0001510395670287
 -0.0002199711903151 -0.0000047007937333 -0.0000490264497062
  0.0001315546775859 -0.0001241941420687  0.0000267331218800
  0.0000317226949617 -0.0000100945358732  0.0000447306505252
 -0.0001283826270251 -0.0000078836474987  0.0000804526487449
  0.0001413206309418 -0.0001191098166281  0.0000329924124622
 -0.0000695762264554  0.0000141875147588 -0.0001459717514688
 -0.0003107543585544  0.0000359753889977 -0.0001135222987360
 -0.0001384148919352 -0.0001494969699128 -0.0000238955040769
  0.0001989957457718 -0.0000791562641980 -0.0001231396631654
  0.0001378316624533 -0.0001997681210611 -0.0001399603603347
 -0.0000441215794908  0.0001201445554566 -0.0000925651586256
 -0.0001015346896920  0.0001746300331138 -0.0001627551219512
 -0.0001975812796867 -0.0000549685711234 -0.0002347091301406
 -0.0001155558853481  0.0001154955883924  0.0000540949830871
 -0.0001126253815204  0.0001323478696813 -0.0000533563453801
  0.0000421421883568 -0.0001133324351077 -0.0000915961004095
  0.0001776140145985  0.0000015356127185  0.0000551412070500
 -0.0000045632233577 -0.0001168275050739  0.0001338168901549
 -0.0000639420502047 -0.0000326487557059 -0.0001652147352679
 -0.0000188358357842 -0.0000669708954958 -0.0000363432722094
  0.0000418826961011 -0.0001009528958519 -0.0001964729642158
  0.0001661615410361  0.0002012622652662 -0.0001432163959409
 -0.0000500034039523  0.0000724162848496  0.0001182861171444
  0.0000150581238383 -0.0000639086715328 -0.0000829273363005
 -0.0000261971609044  0.0001089784924337  0.0001859475563468
 -0.0000810211628983  0.0001036117044686 -0.0000143335195300
 -0.0001327301093110 -0.0000502535645362  0.0000703249136550
  0.0001573940765533 -0.0000640396738472  0.0000442253046110
  0.0001763678775147 -0.0000733605782446 -0.0001299356325441
  0.0001484058821435 -0.0000545673092398  0.0001065379013708
 -0.0000389069695567 -0.0000515402585010 -0.0001470811436710
 -0.0001463970603525  0.0000637974092932 -0.0000012288124764
  0.0002705323411074 -0.0000121644083318 -0.0000217417901371
  0.0000789448659427  0.0000534873476945 -0.0000219780967776
 -0.0001528753939826 -0.0002411314737404  0.0001213835143315
 -0.0001289701634324  0.0001979416257789  0.0000674123553498
 -0.0001710527726544 -0.0000864062552964  0.0002136992301941
  0.0001464365405020 -0.0000009070420794 -0.0002369738550828
 -0.0001329974975966 -0.0000867701904931 -0.0001307080078334
 -0.0001839121751825  0.0000357859201709  0.0002752588328289
 -0.0000159391413210 -0.0000878982460388 -0.0002400339255831
  0.0000983482827132 -0.0000782184311910  0.0003926839238027
 -0.0001020752088303  0.0001164129635036 -0.0000534683254406
  0.0000379217603703  0.0000410220288410 -0.0002173978023856
 -0.0000029525014492  0.0000016105316860  0.0000039291721560
  0.0001872629631476 -0.0000852257988250  0.0000649588435108
  0.0000339868815382 -0.0000667178636283  0.0001609469311020
 -0.0001299460409471  0.0000550927541392 -0.0000523363218800
 -0.0000760186690404 -0.0001286916489229  0.0002521952472850
  0.0000694312266334 -0.0000237845648567  0.0000225794153463
  0.0000896418330069 -0.0000049376028485  0.0000417696393092
  0.0000927352821791  0.0001223306790101 -0.0000470029125868
 -0.0002307586028129  0.0000264560789033  0.0000144623324907
 -0.0000744617155065 -0.0001862935460210  0.0001723527463059
  0.0000053315429589 -0.0000780554858465  0.0001445748719957
  0.0002321902965996  0.0000289130003917 -0.0000182167152573
  0.0001656303535695 -0.0001331094776571  0.0000157115562044
  0.0001779101157201  0.0000791142716753  0.0001706489983977
 -0.0001374325540324 -0.0000074583027239 -0.0001991454114296
  0.0000033376769664 -0.0001702814740965  0.0000192392511305
 -0.0000846346733132  0.0001217226847071  0.0000655115656044
  0.0000270921758946  0.0001149155891045  0.0000527637842265
 -0.0001129728068364  0.0000021636126900 -0.0000856719245149
  0.0000696885654264  0.0001532439950151 -0.0000860617012640
 -0.0000618890824283  0.0000870899797045  0.0001279921324550
 -0.0000130328639487  0.0001062457482642  0.0000387874523767
 -0.0000443362079402 -0.0001382329243368 -0.0001557384226455
 -0.0000568097817340  0.0000091095061421  0.0000482551511483
 -0.0000982452754139  0.0001172915762863  0.0001459484222895
  0.0000735687463059 -0.0001115281922735  0.0003078339042193
 -0.0001176486921844 -0.0000492374890511  0.0000349023544241
 -0.0001052784846003 -0.0000795255830515  0.0000466088289122
 -0.0001911898023856  0.0000074153411430 -0.0001064015153997
  0.0000145453843689 -0.0000401269061777 -0.0000578254983087
 -0.0000875483083497 -0.0001850330525191 -0.0000895449271853
 -0.0001179243354104 -0.0000451286822147 -0.0001623484764109
 -0.0001968221840840 -0.0000576532212925  0.0000737309738294
  0.0001539051080648  0.0001990908570411 -0.0001472627523589
 -0.0000927169777461 -0.0001730493914901  0.0000635763204558
 -0.0000369282962435  0.0001472570097917 -0.0000319404100409
  0.0000906625743279  0.0001503935282179 -0.0001761636574684
  0.0001117356425138 -0.0000146776069788  0.0000335319625423
 -0.0001273076902261 -0.0000182918352145 -0.0000715900729927
 -0.0000271137105216 -0.0000311032873064 -0.0000202153798825
 -0.0000585555221649  0.0001137064197970  0.0000654692141713
  0.0000290129928432  0.0000053958238205  0.0000047769545309
 -0.0001551548342532 -0.0002748579298558 -0.0000129427415346
 -0.0002039601951220  0.0000522900224319 -0.0001354671604059
 -0.0000028274391027 -0.0000595163254406 -0.0001661177539612
  0.0001082459562044 -0.0000926121758946 -0.0000020603039060
 -0.0002410661520385  0.0001094486651237 -0.0001531377575218
  0.0002284052269895 -0.0000578793348763 -0.0001547008125334
  0.0000228474137796  0.0001519949866477  0.0001264872209364
  0.0000226474288766  0.0000638490923981  0.0000075798298024
 -0.0002011635648923  0.0002213293074595  0.0001133109004807
 -0.0000126227369770  0.0000622713220580 -0.0000077035103436
  0.0001306344311910  0.0000329091811287  0.0000213757373687
 -0.0000831821627203 -0.0001509498394161  0.0000562893615809
  0.0001700524892291 -0.0001011284030621 -0.0002045696250668
  0.0000251804393805 -0.0000557097212035 -0.0002470473946947
  0.0000017400911803 -0.0000363942374933 -0.0000839875577711
  0.0001013792814670  0.0001418310016023 -0.0000574755606195
  0.0000966032601033  0.0001325560377426  0.0001863129271853
 -0.0002259025444187 -0.0000748471853302 -0.0000059302773723
  0.0001105164237137  0.0000444747473740 -0.0000608751604059
  0.0001661098579313  0.0000043440008545  0.0001049791532847
  0.0001817228214349  0.0001008656806124  0.0000427720761973
  0.0001538893160050 -0.0000880066369948 -0.0001393552373153
 -0.0001078590507388 -0.0000546843140466  0.0000597675627559
 -0.0001200236026349  0.0000065850377070  0.0000857372462168
 -0.0001011158411964  0.0002357919629696  0.0000342119183906
 -0.0001820996774079  0.0001394184055546 -0.0001417218928254
 -0.0000482906832829 -0.0000180274258857 -0.0000647424205092
  0.0001478818728859 -0.0000879958696813  0.0000435125084565
 -0.0002168396966352  0.0000320026092220  0.0002210647904575
 -0.0000150695012996  0.0000095044153107 -0.0001191090988072
  0.0000549811329891 -0.0000873577269005  0.0002168745109489
  0.0001273722941072 -0.0000210645261171  0.0000330755361225
  0.0000140106436888 -0.0000716679565604  0.0000882227010860
 -0.0002014672031333  0.0000786742474631  0.0001568316638775
 -0.0000317321701976 -0.0000109090472494  0.0000083054031690
 -0.0000554577660673  0.0000876103998576  0.0001649157628627
  0.0000469329250490 -0.0000219010028129  0.0000440426191917
  0.0001309531436710  0.0000265482471070 -0.0000088571562044
  0.0001855972597472  0.0001385092853837  0.0000845467402528
 -0.0001200566223963  0.0000340289458430 -0.0000826359010148
  0.0000133265962613 -0.0000957644863806  0.0000209036265622
 -0.0002627723382589 -0.0002798898543707 -0.0000022098906035
  0.0000435462460388 -0.0000180845644294  0.0001228231041481
  0.0000289490708919 -0.0001590242478191  0.0001346775574150
 -0.0002360403290012 -0.0001835521880007 -0.0001491793341641
 -0.0000049270867723 -0.0000922101961901  0.0001043445996083
  0.0000958326793662  0.0002610470557237 -0.0002044960484244
 -0.0000110812524835 -0.0001127739704469 -0.0000226711887484
  0.0000150327847605  0.0001124595648923  0.0001617598632722
 -0.0001046134235357  0.0000159822823571  0.0001823318924693
  0.0001294410539434  0.0000915415460210  0.0000578832828912
 -0.0000108431153997 -0.0000612064347516 -0.0000341937216308
 -0.0000766395841196 -0.0000244096432971  0.0000197162790101
  0.0000138275275770 -0.0001487310550116  0.0000635354046644
 -0.0000490856699306  0.0001198122043796  0.0000927568168061
  0.0000067030474631 -0.0000083810614919  0.0000907986013886
 -0.0000410288481396  0.0000418227580559 -0.0000018054738971
 -0.0000098896338971 -0.0001574945714794  0.0000188004831049
  0.0000133493152929  0.0001281827139042  0.0000671704497062
 -0.0001641394395585 -0.0001947652682927  0.0000361986312978
 -0.0000701257183550  0.0000464013786719 -0.0000935794395585
  0.0002017349503294 -0.0000665839900303  0.0001055914545131
  0.0000517301221293 -0.0001262489043974 -0.0000155960588214
 -0.0000103894166993 -0.0000962630129963 -0.0000531384867367
 -0.0002019822396297  0.0000281962562222 -0.0001768244116076
 -0.0002104482193342 -0.0000585289627915  0.0000404671532847
 -0.0001594373537476 -0.0001299474765889  0.0000341390236781
 -0.0002299934057326  0.0001592220074773  0.0000248899013708
  0.0000264195059284  0.0001369828392380 -0.0000595296051273
 -0.0000694692711412 -0.0000328346713192 -0.0001195078483176
 -0.0000991547544953 -0.0000737076446502 -0.0000370068976322
 -0.0000728993783158 -0.0000718667929500 -0.0000967597450596
  0.0000824374235357 -0.0000361013665658 -0.0002594201146519
 -0.0001783993106641 -0.0000893582937511  0.0000837851322770
 -0.0002535601837280  0.0000076488482820  0.0001407582182660
 -0.0002160267644650  0.0002256922228948  0.0000704135645362
 -0.0002855581271141 -0.0000488965241232  0.0000151643254406
  0.0001272434452555 -0.0000445235591953  0.0000080077587324
  0.0001309330446858 -0.0001146919878939  0.0002125758404842
  0.0000466005739719 -0.0000018203220224  0.0000809285640021
  0.0001213006060174  0.0000473686423358 -0.0000601968196546
  0.0001464663300694 -0.0001163411814136  0.0002669464667972
  0.0000209290015311  0.0000709652098985 -0.0000195739351255
 -0.0002225542688268  0.0002552581890689  0.0000602825992523
 -0.0001109334776571 -0.0002413611764287  0.0001117284643048
 -0.0000119658590707  0.0001640288951398  0.0000516791568453
 -0.0001790047925939  0.0000421418294463  0.0000366921331672
 -0.0000675616620972 -0.0000458791639665 -0.0000601024262062
 -0.0000919754687556  0.0000333324083318  0.0001099310407691
 -0.0000656920975610  0.0001078314146341  0.0000325206605661
 -0.0000623093665658  0.0000083445602991  0.0000283063340573
  0.0000143726407691  0.0001395888880185  0.0001256872095425
 -0.0001845456521275  0.0000070963415346  0.0000575914886950
  0.0000255332124622 -0.0002161782246751  0.0001772260324016
  0.0001145803667438  0.0001815699255831 -0.0000132374429055
 -0.0000063913696279  0.0000520412974898  0.0000742133494748
 -0.0000218861080292 -0.0001148272971337  0.0000720290204736
 -0.0001127204927897 -0.0000985237899234  0.0000582425522521
 -0.0000588878732419  0.0000608902346448  0.0001695105344490
 -0.0000991795193164 -0.0000120032216486  0.0000220603949439
 -0.0001244683496528  0.0000180895173936 -0.0000644143763575
  0.0000645834231796  0.0000287151330604  0.0002153247356240
  0.0001841515684529  0.0002564530019583 -0.0001176052640199
 -0.0000221918997330  0.0000513730062311  0.0000378047555635
  0.0000211617549582  0.0001544930033826  0.0000102540356774
  0.0000972902147054 -0.0000729686480328 -0.0001777521951220
  0.0000623409506854  0.0001195864497062  0.0000776563774257
  0.0000944192900125  0.0000977593106641  0.0001024509880719
  0.0000314330901193  0.0000093785095247  0.0000228432145273
  0.0000067502441873 -0.0000683114260281  0.0000404621285384
 -0.0000050700408047 -0.0000208099150436  0.0000677152757700
 -0.0000818958276660 -0.0001279515755741  0.0000275072199395
  0.0000387063386149 -0.0001200663129785  0.0000157195957985
 -0.0000455920356062 -0.0000109003616165  0.0003135825729037
 -0.0000671097938401 -0.0002282426405555  0.0000638939562044
  0.0001910570055190 -0.0000733656029909 -0.0000953700437956
 -0.0001143980402350 -0.0001860746106463  0.0000074447717999
  0.0000764296215061 -0.0001624658401282 -0.0000675175161118
 -0.0000272817882856  0.0000704566337903  0.0000586229973295
 -0.0000353648464305 -0.0000473288032758  0.0001465194488161
  0.0001684485184262  0.0002456727676696  0.0000272914788677
  0.0000459642257433  0.0001289249407157  0.0000469666626313
  0.0001096963133345 -0.0001348588071925  0.0000952307865409
 -0.0000635066918284 -0.0000934886352145 -0.0000139941696991
  0.0001126630671177  0.0001083066120705 -0.0000551950436176
  0.0001005842948193 -0.0000161430742389 -0.0000203769972583
 -0.0000193433351611  0.0001017984888731 -0.0000877116126046
  0.0000741717158626  0.0000155195750045 -0.0000130439901727
 -0.0000771111924515 -0.0002684915762863  0.0000099920310486
 -0.0002894034936799  0.0001402754837102  0.0000408443681681
  0.0000399359658181  0.0000240822810753 -0.0000647804650169
 -0.0001476381726900  0.0001497029845113 -0.0001272499056436
 -0.0001279207092754  0.0001023903322058 -0.0000460116019227
  0.0001062712309062 -0.0000288534571479 -0.0000151465952644
  0.0000743938814314  0.0000343272722094  0.0000316659512195
 -0.0000783874780132 -0.0002895793598006  0.0000089033838704
  0.0002692930233221 -0.0001931433519672 -0.0000035483035642
 -0.0001040481395763 -0.0000344288079758 -0.0001539510486025
 -0.0001044267901015 -0.0002831957785295  0.0002025661869325
  0.0000962845476233 -0.0002148707139042 -0.0000426324600320
  0.0000194412818230  0.0000757358476055 -0.0001803855210967
 -0.0000206980426562  0.0000919747509347 -0.0001063476788321
 -0.0000456806864874 -0.0001559666896920 -0.0000749175317785
 -0.0001266085326687  0.0001966305259035 -0.0000913039473028
 -0.0000751637443475  0.0000068422329357  0.0001931774484600
 -0.0001450299704469  0.0001705991098451 -0.0000388237023322
 -0.0000470230115720  0.0001262743870393  0.0001651110101478
 -0.0002939555549226  0.0000323418513797 -0.0001696479971515
  0.0000331369457006 -0.0000434141669931 -0.0001872647576998
  0.0001091608189425 -0.0001050796482108 -0.0000253752918640
  0.0000227937566673 -0.0001528613964750  0.0000494991347694
 -0.0000947100074773 -0.0001718484771230  0.0001637765810931
 -0.0001438929421399  0.0001499567341998  0.0000572279124088
  0.0000749688559729 -0.0002166936200819  0.0001211696037030
 -0.0000565359330604  0.0000442052056258 -0.0000341573640021
  0.0001231044899412  0.0000118674817162  0.0000100727858999
 -0.0001415517692719  0.0002561490048068  0.0001031975218088
 -0.0001393301135838  0.0001344912828912 -0.0001376331849742
 -0.0001453529898522  0.0000447895118391 -0.0000023941049813
 -0.0001807781691294  0.0001501742339327  0.0002286431846181
  0.0000083782978814 -0.0000732256279153  0.0001238467167527
  0.0000936343528574  0.0000544495866121  0.0001178342488873
 -0.0000691089250490  0.0000270661907780 -0.0000410155684529
  0.0002608435534983 -0.0000131861546021  0.0000790859177497
  0.0001179063898878 -0.0000519648495638  0.0002061613929144
  0.0000648942396297 -0.0000896475755741 -0.0000362413416414
 -0.0000373094591419 -0.0000891899647499  0.0000961779512195
  0.0000922597258323  0.0000767870963148 -0.0000724159259391
 -0.0001287792230728  0.0001201983920242  0.0000172931668862
  0.0000071302585722  0.0001239759245149 -0.0001058351547089
 -0.0001887423920242 -0.0000476622310842 -0.0000005827090618
 -0.0001700510535873 -0.0003426155570589  0.0000743640918640
 -0.0000558942011750  0.0001152945985401 -0.0000727705294641
 -0.0000377724536229 -0.0000072964341107 -0.0000570183087057
 -0.0000222359021542 -0.0000001458769991 -0.0001487235178921
  0.0000440899953712  0.0001429949481930  0.0000262273452733
  0.0000869482100766 -0.0000310446054477 -0.0001861557244080
 -0.0001166473320278 -0.0001228378194766  0.0001446549090262
  0.0000053086085811 -0.0001159951917394 -0.0000416813473384
 -0.0000040595284315 -0.0000888346434040 -0.0000182128749154
  0.0000454158105750  0.0002374547950863  0.0000417158027417
  0.0000484302994481 -0.0001234763211679  0.0001505123275770
 -0.0001271508463593  0.0000738673598006 -0.0000558672828912
  0.0000241595903863 -0.0002636330055190 -0.0000952749325263
  0.0000339432739185 -0.0000060797276838  0.0000242813328111
  0.0000183197225565 -0.0000245800180879  0.0001199403354104
  0.0002993535680968  0.0000994045561688  0.0001307356439380
 -0.0000130949554566  0.0000620254683995 -0.0001078877635749
 -0.0000708862495994 -0.0000253286693965  0.0000691875264376
  0.0000856816150970 -0.0000039257625067  0.0001417947516468
  0.0000612351475877  0.0000349596724230  0.0002371956617411
  0.0001886713277550 -0.0000780734313691  0.0000465506854193
  0.0000042740133167  0.0000109330942496  0.0001843321004095
  0.0002553414562934  0.0000923494534449 -0.0001114176478547
  0.0000953438433327  0.0001505658052341  0.0001042642036674
 -0.0000912030934663  0.0001400741349475  0.0000415058401282
  0.0000372631596938 -0.0000369562912587 -0.0001556939177497
 -0.0000643713071034 -0.0000565266013886 -0.0000160766040235
  0.0000625663464483 -0.0001706798646965  0.0000181681187823
  0.0000240752105394  0.0000181550903329  0.0000717569663521
 -0.0000931211109133 -0.0000244803486559  0.0000346510812177
 -0.0000353373538900  0.0000434737461278  0.0001247188691472
  0.0000118488183728  0.0002916100751291 -0.0001169061064625
 -0.0001803869567385  0.0002201143955848  0.0000852871725120
 -0.0001249230891935 -0.0001329985743279 -0.0001805940480684
 -0.0001425344660851  0.0000936461969023 -0.0001524777212035
  0.0001696526629874  0.0000358283792772 -0.0002140825465551
  0.0001764723204558 -0.0000414656421577  0.0000673355485134
  0.0001491064753427  0.0000507578337191  0.0000397360526972
  0.0001044967776393  0.0000304607299270  0.0000834861598718
 -0.0001351671112694  0.0000472509197080  0.0000267773396475
  0.0000013367404380 -0.0001028307153285  0.0001630002577889
  0.0000476765875022  0.0000185952940004  0.0000531571500801
 -0.0001910986391312 -0.0001391136905822 -0.0000201816064091
 -0.0000469569720491  0.0003874151183906 -0.0001164452654442
  0.0001229476460744 -0.0001516834523767  0.0000814331920954
  0.0000772285561688 -0.0000266605142959  0.0002634747260103
  0.0000920016692184  0.0000079212613139  0.0000622476339683
  0.0000823265202065 -0.0000569303756454 -0.0001184160427274
 -0.0001431869652840  0.0001247658864162  0.0000391940979170
  0.0000300984457184 -0.0001283937532491 -0.0001670918369236
  0.0001200336521275  0.0000849555392558  0.0001203832309062
 -0.0000150324617411  0.0000035148854121 -0.0000233643883924
 -0.0001533947374043  0.0000385534427630  0.0001755793512551
 -0.0001350874331494 -0.0001269609827310 -0.0000344714465373
 -0.0001352299205982  0.0000687597051807 -0.0002417714110735
 -0.0000370801153641  0.0000872493359445  0.0001063186070856
 -0.0001777511183906 -0.0001207783913121  0.0001001955948015
 -0.0001587557828022  0.0001261886074417 -0.0001293552743457
  0.0001369038789389 -0.0002639036239986  0.0000354924749866
  0.0001554695987182 -0.0000086452554745  0.0000520176094000
  0.0001561727042905 -0.0004648751717999  0.0002295813765355
 -0.0000287890686131  0.0000715990457540  0.0001048797350899
 -0.0000358243953712 -0.0000442367897454 -0.0000195517185686
  0.0001188657575218  0.0001327207776393  0.0001283496072637
  0.0000933206651237  0.0000429120512729 -0.0000811471404664
  0.0002310285034716  0.0002328855061421  0.0001032316183016
 -0.0000893740858109  0.0001077032836033 -0.0000164520961367
 -0.0000791379597650  0.0000947577425672  0.0001185811415346
  0.0000992211529286  0.0001243671369058  0.0000523036610290
  0.0000836788947837 -0.0000382031461634  0.0000457294983087
 -0.0000328556675806 -0.0001115522392736 -0.0000673585187823
 -0.0000633426697525  0.0000517006914723 -0.0000029780738188
  0.0000609279202421  0.0000003014140730  0.0000862099312800
 -0.0000215135948727 -0.0002673430628449  0.0000389877244080
  0.0000386898287342 -0.0002997368844579  0.0000071465172156
 -0.0001319932661563 -0.0000439047975788 -0.0001199941719779
  0.0000912501107353 -0.0002369218130675 -0.0001962838184084
  0.0000354869836568  0.0000447478782268 -0.0000238629150080
  0.0000644836460744 -0.0001256969001246 -0.0000552000683639
 -0.0001054044621684  0.0000685393341641  0.0000218569645006
 -0.0001967270728147  0.0000667670343600 -0.0000873986426918
  0.0000545274701798  0.0000247108050561 -0.0000301422686844
  0.0000194165170020  0.0001047232501335  0.0000790683311376
 -0.0000180900198683 -0.0000687679601211  0.0000604563119103
 -0.0001477462047356  0.0001263842136372  0.0000566780615987
 -0.0000512222638419 -0.0000154599599786  0.0001199604343956
  0.0002113856934307 -0.0001340010112160 -0.0002470556496350
  0.0001689736044152 -0.0001998237521809  0.0001954812946413
 -0.0000633537959765  0.0000380409186398  0.0001000132682927
  0.0002794010183372  0.0000256156183016  0.0000119648182304
 -0.0002688285931992 -0.0000377150279509  0.0001413798511661
  0.0000370442243190  0.0000518525105928 -0.0000666493117322
  0.0001130596631654  0.0001450497105216  0.0000332766336479
  0.0000615423749332  0.0000802990350721  0.0002275424062667
 -0.0000816363354104 -0.0000371070336479 -0.0000522702823571
  0.0002084828257077  0.0000081949664234 -0.0000501523517892
  0.0000267066701798 -0.0002209384539790 -0.0001013340587502
 -0.0000000647219626  0.0000141454504540 -0.0001957964180167
  0.0001607340972049 -0.0001705553227702 -0.0000643239309240
  0.0001273862916147  0.0001207931066406  0.0000114356765533
  0.0000381511041481 -0.0001193527990030  0.0000148466896920
 -0.0000309050251736 -0.0001832790571479 -0.0000078655225209
  0.0001186784062667 -0.0001214072024212  0.0000670132469290
 -0.0001411878340751 -0.0001347231390422 -0.0000245019191739
  0.0000588013758234 -0.0000936583998576  0.0000484916731351
 -0.0000521532775503  0.0002607164991989  0.0000928153192095
  0.0003649616806124  0.0000351575756454 -0.0000619561986826
  0.0001936695146876 -0.0001350781014777 -0.0001038833996795
 -0.0000194960156667 -0.0000466924550472  0.0001014277343778
  0.0000064558658359  0.0000047146476767  0.0001209348762685
 -0.0000666536186576 -0.0001443218401282 -0.0000692054719601
  0.0001600252490653 -0.0002201352123910  0.0000147735078512
  0.0000584410297312 -0.0000159315683105  0.0000279356872352
 -0.0000756504269183  0.0000153844811109  0.0000811891329891
 -0.0002905319081360  0.0001036544148122  0.0000825971386861
 -0.0000092378166281 -0.0000853244991989  0.0000688648659427
  0.0002751429047534  0.0000519260872352  0.0000088527416058
  0.0000455277906356 -0.0000487414748086 -0.0001156011080648
  0.0000402833911341  0.0000507764970625 -0.0001092031703756
  0.0001486330724586  0.0001065651785651  0.0001457029275414
 -0.0000381123418195  0.0000503734406267 -0.0001376737418551
  0.0000584701014777  0.0000195253745416 -0.0001577572939291
 -0.0000140823898878  0.0002533394538010  0.0002204733060353
  0.0000029371795620  0.0000055710439024  0.0000015097280968
  0.0000789028734200  0.0000761216763397 -0.0002674977532491
 -0.0000544133366566 -0.0000817307288588  0.0001516637123019
 -0.0001111735887484 -0.0001599387516468  0.0000367039772120
 -0.0001071792743457 -0.0002529862859177 -0.0000989695567029
  0.0001261293872174  0.0001215112864518 -0.0000791925141535
  0.0000821689585188 -0.0000341715409649 -0.0000214376494214
 -0.0000348838705359 -0.0000963954509525 -0.0000705269802386
 -0.0000734646622752  0.0000000230070930  0.0000804379334164
 -0.0000265110998754 -0.0001924416820367 -0.0000128820497775
  0.0000581553370126 -0.0001223924116076 -0.0001435620267046
  0.0001037710607086  0.0000724916560442  0.0001303785280399
  0.0000598816962792 -0.0000432077934841  0.0001031167669575
  0.0001678441132277  0.0001824298750223 -0.0001577346825708
 -0.0000463148812533  0.0000829517422111 -0.0001032258757344
 -0.0002119506184796 -0.0001098592586790 -0.0002349592907246
 -0.0000357619090618  0.0000788102745238  0.0001542191547089
 -0.0000901317457718  0.0000030047085633 -0.0003464497974007
  0.0000554254641268 -0.0000990147794196 -0.0000036200425850
 -0.0000831326330782 -0.0001603995926651  0.0000738842285918
 -0.0001991963767135 -0.0000604189852234  0.0000230124049137
 -0.0000845208987004 -0.0000099180954958  0.0001736835862560
 -0.0002304851130497  0.0000528632024212  0.0000433847363361
  0.0001000276247107  0.0000287428768382  0.0000364437671355
  0.0001462599565604  0.0000708776357486  0.0000049246102902
  0.0000546412447926 -0.0001650901933416  0.0000060741286808
  0.0001884014270963  0.0002307977240520  0.0001312998511661
  0.0000511059768560 -0.0002020468435108  0.0000042557088837
  0.0001010853338081  0.0001776886679722 -0.0000624206288054
 -0.0000032815074809  0.0000357665031155 -0.0000019571315079
  0.0000121500519138 -0.0000496857682037 -0.0000060431906000
 -0.0001213899747196 -0.0000481647057148 -0.0001941188705715
 -0.0001083206095781  0.0000592406822147 -0.0000521285127292
 -0.0002263892269895 -0.0003455571871106 -0.0002021340587502
 -0.0000130245013352 -0.0000041620332562  0.0000909791333452
  0.0000381263393270 -0.0000120227104860 -0.0001496645810931
  0.0000959525554566 -0.0000624389332384  0.0000690414498843
 -0.0000119226462524 -0.0001982825907068 -0.0001076914395585
 -0.0000920820651593 -0.0000732134249599 -0.0000920339711590
 -0.0000524960370304  0.0001168601659249 -0.0000161570358554
  0.0000930109254050 -0.0000330076661563 -0.0000776603254406
  0.0000270954778707  0.0001303616592487 -0.0001010279081360
  0.0001169857845825  0.0001284572803988  0.0000340537824461
  0.0000046968457184  0.0002191266740253  0.0000785809307459
  0.0000270767068542 -0.0000991701876447  0.0000481087156845
  0.0001237329421399  0.0001806622410539 -0.0000257391193876
  0.0000628358881965  0.0000474716496350  0.0001542873476945
  0.0000226343645362  0.0000132533067474 -0.0000587206209720
  0.0000699476987716  0.0000793044942140  0.0002651856521275
 -0.0001483262040235 -0.0000062015059996  0.0000784919209542
 -0.0000064329314581 -0.0000782690375645 -0.0001008409157913
 -0.0000462786312978  0.0000020233181841  0.0002074243987894
 -0.0000490856699306 -0.0001012888360335  0.0000437267779954
  0.0001741020758412 -0.0000936767042905 -0.0000486879971515
  0.0002121828335410  0.0001067464283425 -0.0000884301513263
  0.0000226401429945 -0.0000701573024746 -0.0002128496891579
  0.0000243039441695 -0.0000128255213815  0.0001835295766423
  0.0001593070692541 -0.0000639014933238  0.0001621205682749
 -0.0000100813997508 -0.0001754415296422 -0.0001133037222717
 -0.0001579406971693 -0.0001402665109489  0.0000036444484956
 -0.0001474816877337 -0.0000150472129607 -0.0000319460449350
  0.0002341463585544 -0.0000712415709453  0.0000700273768916
  0.0000378316738472  0.0000410249001246  0.0000308888383123
 -0.0000220086759480 -0.0000168857317429  0.0001094289250490
  0.0001252001680612 -0.0000064462111447 -0.0000216160638063
 -0.0001163128274880 -0.0001029369528218 -0.0001312815467331
  0.0000095385118035 -0.0001088072921488  0.0001252697966886
 -0.0000003382178273  0.0000944031390422 -0.0000445795492256
  0.0001807074637707 -0.0001144274708919  0.0001130804799715
 -0.0001279103008724  0.0001227628071925  0.0000462039779242
  0.0000350375559907 -0.0000350408579669  0.0000268930523767
 -0.0000121480061243 -0.0001971448445790 -0.0001022840947125
  0.0000939509118747  0.0001163695353391  0.0001455245490475
  0.0002263379027951  0.0001396865116610  0.0001621327712302
 -0.0001771384582517 -0.0000169639383301  0.0000881092853837
  0.0001344948719957  0.0001719737368702  0.0000519967925939
 -0.0000945434730283  0.0000701458173402 -0.0001109474751647
  0.0000754946597828 -0.0002152317778173 -0.0002485533829446
  0.0000646013687022  0.0000646534107175 -0.0001710606686844
  0.0000268288074061  0.0001154352914367 -0.0000085283224497
 -0.0000832650710344 -0.0000353519256543  0.0002761758490297
  0.0000656655381876  0.0001867802285918  0.0002134009756098
  0.0000556838796511  0.0001055688431547 -0.0000805868812533
  0.0001020490083675  0.0000296347693075 -0.0002344761972583
  0.0000077118729571  0.0000803700993413  0.0001256071725120
  0.0000146978136372 -0.0000173191878939 -0.0000489517963326
 -0.0001790252504896  0.0000022646172690 -0.0000451649321702
  0.0001129046138508  0.0000525523859712  0.0000563966758056
 -0.0001767476047712  0.0001032768410183  0.0000576069218444
 -0.0001148854406267 -0.0001065795349831 -0.0001411314851344
 -0.0000893959793484 -0.0000685820445077 -0.0001569702033114
 -0.0001154209350187 -0.0000308481378672  0.0002166925433505
 -0.0000289877973295 -0.0001033967171088  0.0000262720296244
  0.0000446692768382  0.0001722149246929  0.0000807203959409
  0.0000535759985758 -0.0001161351668150  0.0000712124991989
 -0.0000412258899769  0.0000593092341107  0.0000333025469824
  0.0000273409726188  0.0001586007334876  0.0000517082285918
 -0.0000854867267224  0.0000873573679900 -0.0002409681694855
  0.0000128066068008 -0.0000880698052341  0.0001413572398077
  0.0002401875392558  0.0002227653081716 -0.0000309059224497
 -0.0000094850341463 -0.0000079870495994 -0.0000523025842977
 -0.0000868462795086  0.0000279064001424  0.0001507179832651
 -0.0001458109595870  0.0000659282606374 -0.0000700643446680
  0.0000672791995727  0.0002014912501335  0.0001466407605483
 -0.0001486140502047  0.0001276443482286 -0.0001946317536051
 -0.0000859271098451  0.0002375430870571 -0.0002155041908492
  0.0000079176363183  0.0000142099825530  0.0000725038589995
  0.0000955509346626  0.0001404861641446  0.0001097587637529
 -0.0000998442214705  0.0001512821904931 -0.0001939954053765
 -0.0000545317771052 -0.0001023910500267  0.0001733882029553
  0.0000648583485847  0.0001577669845113  0.0001555227174648
  0.0000048041958341 -0.0000697151247997  0.0000003826882678
 -0.0001788691244437  0.0000116576626669 -0.0000163429873598
 -0.0000362115520741  0.0000460083717287  0.0000722020153107
 -0.0000933791675271  0.0002190861171444 -0.0000290671165391
 -0.0000879158326509  0.0002105551746484  0.0002525563111981
 -0.0000190081128004 -0.0000333737189247  0.0000859066519494
 -0.0000713219668862  0.0001230194281645 -0.0000296805662809
  0.0000045929411430 -0.0000112329280399 -0.0001764012561866
  0.0000321900322592  0.0002151406145629  0.0000110199864696
 -0.0000037095907424 -0.0001443164564714 -0.0000554803774257
 -0.0000752843382589  0.0000628488089728  0.0001225679188179
  0.0000346312334698  0.0000183932274168  0.0000723861363717
  0.0000483728737760 -0.0002192232209364 -0.0001514131928075
  0.0001478757714082  0.0001313321531066 -0.0001174512914367
 -0.0000370539149012 -0.0000362553391490 -0.0000370865757522
 -0.0000610280562578 -0.0000847265543885  0.0001149952672245
 -0.0000409965461990 -0.0000119162576464  0.0000115623001602
  0.0000860060701442 -0.0002437019903863  0.0001587780352501
  0.0001117141078868 -0.0000429651700196 -0.0000614971522165
 -0.0000662993740431  0.0001204679337725 -0.0000750794003917
  0.0000913947516468  0.0000221712982731  0.0000771154993769
  0.0000757430258145  0.0000723541933416  0.0001062554388464
 -0.0001786473177853  0.0000275164080470 -0.0000761579262952
  0.0000379030970269 -0.0000742614434752 -0.0001246772355350
 -0.0000070872252092 -0.0002026656051273  0.0001483610183372
  0.0000380308691472  0.0001436743656756 -0.0000954913555279
  0.0001446121986826 -0.0000552531871106  0.0000133999934485
  0.0001118372141713 -0.0001651124457896 -0.0000047661872174
  0.0000312499022254  0.0000710581677052 -0.0001366530005341
  0.0001915724009258 -0.0000626686359267 -0.0001916441830158
  0.0001214086380630 -0.0000727407398967 -0.0000849404650169
  0.0001207984902973 -0.0002468988057682  0.0000227244151682
  0.0000892359052875  0.0000315375330604 -0.0000149489432793
  0.0000970457966886  0.0000117005524657  0.0000852921972583
 -0.0001080219960833  0.0000821258892647 -0.0001305802357130
 -0.0001908653473384  0.0000071599045754 -0.0000842136713548
  0.0001950897233399  0.0001071006729571  0.0001458906377070
 -0.0001810660153107 -0.0001640436104682  0.0000696706199039
  0.0001337612590351 -0.0000710567320634  0.0000216948446502
  0.0000391140608866 -0.0001768437927719 -0.0001011510144205
 -0.0001188460174470  0.0000216991156845 -0.0000271714951041
 -0.0000686599280755 -0.0000467929499733  0.0001154553904219
 -0.0001900513384369  0.0000697215851878 -0.0000339052294107
  0.0000517914958163  0.0000608647520028  0.0001077122563646
 -0.0000956001053943  0.0001040524465017  0.0001288707452377
  0.0000918588228592  0.0002205777489763  0.0001762476425138
 -0.0000103591246573 -0.0001557883111981  0.0000523144283425
  0.0000005965055795 -0.0000382871312088 -0.0000631431155421
 -0.0000859597706961  0.0000606573017625 -0.0000814489841552
 -0.0001419218059462 -0.0001008807548513 -0.0001039293402172
  0.0002375172455047 -0.0000696724144561 -0.0000839667409649
 -0.0000574723304255  0.0000146119263664  0.0000712487491544
 -0.0000854346847071 -0.0000270755942318 -0.0000454771842621
  0.0000490174769450  0.0001146173345202 -0.0001071997322414
 -0.0001096065857219 -0.0000815527092754 -0.0000303977770340
 -0.0001314416207940 -0.0000142361830158  0.0001069840270607
  0.0000682471810575 -0.0000113745541036  0.0000478176393092
  0.0001532999850454  0.0000650080142425 -0.0000079973862204
 -0.0000315178647677  0.0000601878468934 -0.0000319222850632
  0.0001391851137618 -0.0000468105365854  0.0000345764637351
  0.0000142043476589  0.0001879592494214 -0.0000171199208118
 -0.0000182275902439 -0.0001040904910094  0.0000181926682571
  0.0001005860893716 -0.0001162345850098 -0.0001106553220580
 -0.0001542353056792 -0.0000394428228592 -0.0000436151568453
 -0.0000752161452733  0.0000435143030087  0.0001915393811643
  0.0000745198589995 -0.0001453759601211 -0.0001008742944632
  0.0000320303529998  0.0001033683631832  0.0000253776965640
  0.0000597890973829  0.0000629331529286 -0.0000202341867901
  0.0001553827423892  0.0000725885618658  0.0000301243231618
  0.0001349729407157  0.0000348151750757  0.0000611418308706
 -0.0000127751303543 -0.0000618280676518 -0.0000397331814136
 -0.0000002739297874  0.0001793794951041  0.0000811363731529
 -0.0000427182396297 -0.0001253031753605 -0.0001724629318141
 -0.0000027826973260 -0.0001861015289300  0.0001010637991811
 -0.0001153258237493  0.0000577300281289 -0.0000339308556169
  0.0000030102752644  0.0000511483282891 -0.0000874847811999
  0.0000766578885526  0.0001050283240164  0.0000153334440449
 -0.0000208942589995 -0.0002108469688446 -0.0000812630685419
  0.0002133507281467  0.0000177236440805  0.0000169506945344
  0.0000647833363005 -0.0000064447755029  0.0000920045405020
  0.0000932452939291  0.0000105816491365  0.0000212315989318
  0.0001249726188357  0.0001483427139042  0.0001389069581627
 -0.0001764820110379 -0.0001638849720491 -0.0000080963019405
 -0.0000358500933594  0.0002874650183372  0.0001255375438846
 -0.0000580871440271 -0.0001628035748620 -0.0000189772823927
 -0.0000354440579669  0.0000573459939469 -0.0000093380603169
  0.0000075215786363 -0.0001638454918996  0.0000193690690404
  0.0000797179590529 -0.0002273195228770  0.0000442586832829
 -0.0000136452728503 -0.0000031652097276 -0.0000511576599608
 -0.0000001543856892 -0.0000859913548157 -0.0000941199586968
  0.0000054760761973  0.0001941425586612 -0.0000512039594089
 -0.0000226395328467  0.0001288133195656  0.0000191567017269
 -0.0000962124066228 -0.0000196015353391  0.0000948205518960
 -0.0000033950200890  0.0001010074502403 -0.0000231186782980
  0.0000188195412498 -0.0000580153619370 -0.0000331810916860
  0.0000860358597116  0.0000416519166815  0.0000045548248531
  0.0000152935332028 -0.0000170642538010 -0.0001552750692541
 -0.0000928138835677 -0.0001115019918106 -0.0000460546711768
 -0.0000125652395229 -0.0000629518162720 -0.0000804817204914
  0.0000694279964394  0.0000268773679900  0.0000735985358732
  0.0002157970617767  0.0000142227956560 -0.0000119361053943
  0.0000432616300516 -0.0000540224831761 -0.0000662412305501
  0.0001427011576665 -0.0002351994583163  0.0004565338904796
 -0.0000615899531090  0.0003450756324737  0.0000454712339855
  0.0000278556972171  0.0003478560521568  0.0001027522880505
 -0.0002502598144448  0.0000470452020144  0.0002344269525233
 -0.0001298450982237  0.0003723477922409 -0.0000263140922714
 -0.0003663010056508  0.0002956883652308 -0.0002577574290352
  0.0007101873198673 -0.0002244895822830 -0.0001995489672374
  0.0003671025680820  0.0000871438636097  0.0001263502860238
 -0.0000385146740360 -0.0000947273455756  0.0000954156873134
 -0.0002080665700215  0.0003862478867503 -0.0002523338572354
  0.0000681943265652  0.0000992326274152 -0.0002842119951227
 -0.0002278561444938  0.0001647331030400 -0.0000800856054268
 -0.0003093590124942 -0.0002517677537684  0.0000417997774649
 -0.0004141913550536  0.0001681487609497  0.0000969035875762
 -0.0000565043400692  0.0001488621669030  0.0005494740524196
  0.0002535782829098 -0.0003865194160238 -0.0004741702678712
 -0.0002791992240688  0.0001318750550806 -0.0003102627741354
 -0.0000168123712124  0.0003862679258111 -0.0002652580494848
  0.0002537155504761 -0.0000436096052391  0.0001086167191874
  0.0000942798733484 -0.0000247983377140  0.0001367385351317
  0.0000516930617715 -0.0000316871656380  0.0000613510875045
 -0.0004542855078602 -0.0001842912263603  0.0003673690875904
 -0.0001485134872454  0.0000239527895445  0.0001661398451066
 -0.0002417692643927  0.0001201471947597  0.0004737825120452
 -0.0001464214093001  0.0000524089572178 -0.0003991971278257
 -0.0002465465764824  0.0001145082030565 -0.0001885124545134
 -0.0003596800999695 -0.0001809647422710 -0.0000996813019861
  0.0004348185622664  0.0003368536058361  0.0000038994910128
 -0.0000713708182846  0.0001301436802293 -0.0001019717666331
  0.0001755351587529 -0.0000728554121024 -0.0000668994024577
  0.0002580159329193 -0.0001444916477471  0.0000004721773833
 -0.0003345410982222 -0.0001769058305102  0.0001772695394633
 -0.0001375220624081  0.0002569518587919 -0.0000087911760419
  0.0002165821688996 -0.0000755095857026  0.0004246968326670
 -0.0001886537298919 -0.0001080846821238 -0.0003099902429088
 -0.0002662940689271  0.0000655476676128  0.0002401821707790
 -0.0004853310227721 -0.0001140092304431 -0.0002351152942610
 -0.0007111772494698 -0.0002121224759232  0.0001442722200315
 -0.0001960291062116 -0.0005344407490232  0.0002563176225183
