LAMMPS (2 Sep 2026)
KOKKOS mode with Kokkos version 5.2.1 is enabled
  using double precision
  using view layout = legacy
  will use up to 1 GPU(s) per node
  using 1 OpenMP thread(s) per MPI task
package kokkos
package kokkos newton on neigh half
newton          on

variable 	lp equal 110
variable 	a loop ${lp}
variable 	a loop 110

units		metal
atom_style	charge
boundary	p p f
timestep 	0.0005

variable 	lat_a equal 5.43

variable 	x equal 4*${lat_a}
variable 	x equal 4*5.43
variable 	y equal 4*${lat_a}
variable 	y equal 4*5.43
variable 	z equal 8*${lat_a}+12.0
variable 	z equal 8*5.43+12.0
variable 	len_z2 equal 8*${lat_a}
variable 	len_z2 equal 8*5.43

region 		bbox block 0 ${x} 0 ${y} 0 ${z} units box
region 		bbox block 0 21.72 0 ${y} 0 ${z} units box
region 		bbox block 0 21.72 0 21.72 0 ${z} units box
region 		bbox block 0 21.72 0 21.72 0 55.44 units box
create_box 	2 bbox
Created orthogonal box = (0 0 0) to (21.72 21.72 55.44)
  1 by 1 by 1 MPI processor grid

lattice 	diamond ${lat_a}
lattice 	diamond 5.43
Lattice spacing in x,y,z = 5.43 5.43 5.43
region 		lbox block  0 ${x} 0 ${y} 0 ${len_z2} units box
region 		lbox block  0 21.72 0 ${y} 0 ${len_z2} units box
region 		lbox block  0 21.72 0 21.72 0 ${len_z2} units box
region 		lbox block  0 21.72 0 21.72 0 43.44 units box
create_atoms 	1 region lbox
Created 1056 atoms
  using lattice units in orthogonal box = (0 0 0) to (21.72 21.72 55.44)
  create_atoms CPU = 0.011 seconds

variable	M_Si equal 28.0855
variable	M_Ar equal 39.948

mass            1 ${M_Si}
mass            1 28.0855
mass            2 ${M_Ar}
mass            2 39.948

region          anchor block INF INF INF INF 0.0 2.72 units box
region          insert block 0.0 ${x} 0.0 ${y} $((v_z-0.5)) $((v_z-0.5)) units box
region          insert block 0.0 21.72 0.0 ${y} $((v_z-0.5)) $((v_z-0.5)) units box
region          insert block 0.0 21.72 0.0 21.72 $((v_z-0.5)) $((v_z-0.5)) units box
region          insert block 0.0 21.72 0.0 21.72 54.939999999999997726 $((v_z-0.5)) units box
region          insert block 0.0 21.72 0.0 21.72 54.939999999999997726 54.939999999999997726 units box
region		del block INF INF INF INF $((v_z-3)) ${z} units box
region		del block INF INF INF INF 52.439999999999997726 ${z} units box
region		del block INF INF INF INF 52.439999999999997726 55.44 units box

group 		anchor region anchor
96 atoms in group anchor
group		insert region insert
0 atoms in group insert
group 		mobile subtract all anchor
960 atoms in group mobile
group		amobile union mobile insert
960 atoms in group amobile

variable 	energ equal 100
variable 	angl equal 0

variable 	vel equal sqrt(2*${energ}*6.02214129*1.0e+7/${M_Ar}/6242)
variable 	vel equal sqrt(2*100*6.02214129*1.0e+7/${M_Ar}/6242)
variable 	vel equal sqrt(2*100*6.02214129*1.0e+7/39.948/6242)
variable 	velz equal cos(${angl}*PI/180)*${vel}
variable 	velz equal cos(0*PI/180)*${vel}
variable 	velz equal cos(0*PI/180)*219.776405126004
variable 	vely equal sin(${angl}*PI/180)*${vel}
variable 	vely equal sin(0*PI/180)*${vel}
variable 	vely equal sin(0*PI/180)*219.776405126004

velocity	mobile create 298.0 459087


# ---------- MACE POTENTIAL (CPU-compatible: no cuequivariance, built without --format=mliap's forced cueq conversion) ----------
pair_style      mliap unified ./MLIAP/mace-medium-density-agnesi-stress.model-mliap_lammps_cpu.pt 0
pair_coeff      * * Si Ar
# ------------------------------------


neighbor 	2.0 bin
neigh_modify   	every 5 delay 0 check no

variable	nall     equal count(all)
variable	nfixed   equal count(anchor)
variable	nmobile  equal count(mobile)
variable 	ninject  equal count(insert)

thermo      	100

compute     	mtemp amobile temp
thermo_style    custom step atoms v_nmobile v_ninject temp etotal
compute_modify  mtemp dynamic/dof yes
thermo_modify   temp mtemp
WARNING: Temperature for thermo pressure is not for group all (src/thermo.cpp:593)
thermo_modify	lost warn

dump            myDump all custom 400 dump_cpu.lammpstrj id type x y z vx vy vz

restart         4000 restart_cpu.1 restart_cpu.2

variable    	c equal 0.0

label		loop

variable    	c equal ${c}+1
variable    	c equal 0+1
variable    	deposeed equal floor(random(1,3245,${c}))
variable    	deposeed equal floor(random(1,3245,1))

fix		depo insert deposit 1 2 1000 ${deposeed} region insert vx 0.0 0.0 vy ${vely} ${vely} vz -${velz} -${velz} units box
fix		depo insert deposit 1 2 1000 260 region insert vx 0.0 0.0 vy ${vely} ${vely} vz -${velz} -${velz} units box
fix		depo insert deposit 1 2 1000 260 region insert vx 0.0 0.0 vy 0 ${vely} vz -${velz} -${velz} units box
fix		depo insert deposit 1 2 1000 260 region insert vx 0.0 0.0 vy 0 0 vz -${velz} -${velz} units box
fix		depo insert deposit 1 2 1000 260 region insert vx 0.0 0.0 vy 0 0 vz -219.776405126004 -${velz} units box
fix		depo insert deposit 1 2 1000 260 region insert vx 0.0 0.0 vy 0 0 vz -219.776405126004 -219.776405126004 units box

fix     	2 mobile nve
fix             3 insert nve

run		2000

CITE-CITE-CITE-CITE-CITE-CITE-CITE-CITE-CITE-CITE-CITE-CITE-CITE

Your simulation uses code contributions which should be cited:

- KOKKOS package: https://doi.org/10.1145/3731599.3767498

@inproceedings{Johansson25,
 author = {A. Johansson and E. Weinberg and C. Trott and M. McCarthy and S. Moore},
 title = {{LAMMPS-KOKKOS}: {P}erformance Portable Molecular Dynamics Across Exascale Architectures},
 year = 2025,
 booktitle = {Proceedings of the SC '25 Workshops of the International Conference for High Performance Computing,
  Networking, Storage and Analysis},
 pages = {1217--1232},
}

CITE-CITE-CITE-CITE-CITE-CITE-CITE-CITE-CITE-CITE-CITE-CITE-CITE

Neighbor list info ...
  update: every = 5 steps, delay = 0 steps, check = no
  max neighbors/atom: 2000, page size: 100000
  master list distance cutoff = 7
  ghost atom cutoff = 7
  binsize = 7, bins = 4 4 8
  1 neighbor lists, perpetual/occasional/extra = 1 0 0
  (1) pair mliap/kk, perpetual
      attributes: full, newton on, kokkos_device
      pair build: full/bin/kk/device
      stencil: full/bin/3d
      bin: kk/device
Per MPI rank memory allocation (min/avg/max) = 151.4 | 151.4 | 151.4 Mbytes
   Step        Atoms      v_nmobile      v_ninject         Temp          TotEng    
         0        1056   960            0              298           -5466.5962    
       100        1057   960            1              175.43178     -5466.4447    
       200        1057   960            1              682.27577     -5381.8615    
       300        1057   960            1              590.65856     -5379.6017    
       400        1057   960            1              480.80742     -5376.784     
       500        1057   960            1              433.80621     -5372.1967    
       600        1057   960            1              445.91445     -5368.8471    
       700        1057   960            1              472.784       -5368.503     
       800        1057   960            1              480.21084     -5368.4315    
       900        1057   960            1              488.94078     -5368.0567    
      1000        1057   960            1              512.42866     -5368.0558    
      1100        1057   960            1              501.68596     -5367.7803    
      1200        1057   960            1              500.16792     -5367.8732    
      1300        1057   960            1              514.58627     -5367.8159    
      1400        1057   960            1              502.67766     -5366.9826    
      1500        1057   960            1              525.18389     -5367.0185    
      1600        1057   960            1              499.49036     -5367.1224    
      1700        1057   960            1              487.15123     -5367.1332    
      1800        1057   960            1              511.31923     -5367.0959    
      1900        1057   960            1              518.4711      -5367.0948    
      2000        1057   960            1              525.35854     -5367.1299    
Loop time of 377.182 on 1 procs for 2000 steps with 1057 atoms

Performance: 0.229 ns/day, 104.773 hours/ns, 5.302 timesteps/s, 5.605 katom-step/s
99.5% CPU use with 1 MPI tasks x 1 OpenMP threads

MPI task timing breakdown:
Section |  min time  |  avg time  |  max time  |%varavg| %total
---------------------------------------------------------------
Pair    | 376.29     | 376.29     | 376.29     |   0.0 | 99.76
Neigh   | 0.090335   | 0.090335   | 0.090335   |   0.0 |  0.02
Comm    | 0.35457    | 0.35457    | 0.35457    |   0.0 |  0.09
Output  | 0.018452   | 0.018452   | 0.018452   |   0.0 |  0.00
Modify  | 0.26067    | 0.26067    | 0.26067    |   0.0 |  0.07
Other   |            | 0.1656     |            |       |  0.04

Nlocal:           1057 ave        1057 max        1057 min
Histogram: 1 0 0 0 0 0 0 0 0 0
Nghost:           1911 ave        1911 max        1911 min
Histogram: 1 0 0 0 0 0 0 0 0 0
Neighs:              0 ave           0 max           0 min
Histogram: 1 0 0 0 0 0 0 0 0 0
FullNghs:        72134 ave       72134 max       72134 min
Histogram: 1 0 0 0 0 0 0 0 0 0

Total # of neighbors = 72134
Ave neighs/atom = 68.244087
Neighbor list builds = 400
Dangerous builds not checked

unfix      	depo

fix        	1coolB mobile temp/berendsen 298.0 298.0 0.1
fix        	2coolB insert temp/berendsen 298.0 298.0 0.1

run		2000
Per MPI rank memory allocation (min/avg/max) = 159.8 | 159.8 | 159.8 Mbytes
   Step        Atoms      v_nmobile      v_ninject         Temp          TotEng    
      2000        1057   960            1              525.35854     -5367.1299    
      2100        1057   960            1              467.73444     -5378.3258    
      2200        1057   960            1              431.65521     -5387.2351    
      2300        1057   960            1              387.17481     -5394.2993    
      2400        1057   960            1              370.58169     -5399.536     
      2500        1057   960            1              366.17516     -5403.7132    
      2600        1057   960            1              343.3615      -5407.814     
      2700        1057   960            1              330.16322     -5410.2495    
      2800        1057   960            1              322.01709     -5412.1881    
      2900        1057   960            1              328.6456      -5414.1504    
      3000        1057   960            1              327.92737     -5416.5734    
      3100        1057   960            1              327.79022     -5418.8835    
      3200        1057   960            1              320.4098      -5420.8632    
      3300        1057   960            1              318.82671     -5422.0413    
      3400        1057   960            1              315.56858     -5423.5382    
      3500        1057   960            1              313.29175     -5424.536     
      3600        1057   960            1              325.07722     -5425.4993    
      3700        1057   960            1              315.38298     -5426.7281    
      3800        1057   960            1              311.61967     -5427.404     
      3900        1057   960            1              310.76483     -5428.1802    
      4000        1057   960            1              310.41046     -5429.0533    
Loop time of 376.547 on 1 procs for 2000 steps with 1057 atoms

Performance: 0.229 ns/day, 104.596 hours/ns, 5.311 timesteps/s, 5.614 katom-step/s
99.5% CPU use with 1 MPI tasks x 1 OpenMP threads

MPI task timing breakdown:
Section |  min time  |  avg time  |  max time  |%varavg| %total
---------------------------------------------------------------
Pair    | 375.9      | 375.9      | 375.9      |   0.0 | 99.83
Neigh   | 0.089286   | 0.089286   | 0.089286   |   0.0 |  0.02
Comm    | 0.31624    | 0.31624    | 0.31624    |   0.0 |  0.08
Output  | 0.017793   | 0.017793   | 0.017793   |   0.0 |  0.00
Modify  | 0.18189    | 0.18189    | 0.18189    |   0.0 |  0.05
Other   |            | 0.03855    |            |       |  0.01

Nlocal:           1057 ave        1057 max        1057 min
Histogram: 1 0 0 0 0 0 0 0 0 0
Nghost:           1909 ave        1909 max        1909 min
Histogram: 1 0 0 0 0 0 0 0 0 0
Neighs:              0 ave           0 max           0 min
Histogram: 1 0 0 0 0 0 0 0 0 0
FullNghs:        72442 ave       72442 max       72442 min
Histogram: 1 0 0 0 0 0 0 0 0 0

Total # of neighbors = 72442
Ave neighs/atom = 68.535478
Neighbor list builds = 400
Dangerous builds not checked

unfix           1coolB
unfix           2coolB

delete_atoms    region del
Deleted 0 atoms, new total = 1057

next		a
jump		in_cpu.lammps loop

variable    	c equal ${c}+1
variable    	c equal 1+1
variable    	deposeed equal floor(random(1,3245,${c}))
variable    	deposeed equal floor(random(1,3245,2))

fix		depo insert deposit 1 2 1000 ${deposeed} region insert vx 0.0 0.0 vy ${vely} ${vely} vz -${velz} -${velz} units box
fix		depo insert deposit 1 2 1000 579 region insert vx 0.0 0.0 vy ${vely} ${vely} vz -${velz} -${velz} units box
fix		depo insert deposit 1 2 1000 579 region insert vx 0.0 0.0 vy 0 ${vely} vz -${velz} -${velz} units box
fix		depo insert deposit 1 2 1000 579 region insert vx 0.0 0.0 vy 0 0 vz -${velz} -${velz} units box
fix		depo insert deposit 1 2 1000 579 region insert vx 0.0 0.0 vy 0 0 vz -219.776405126004 -${velz} units box
fix		depo insert deposit 1 2 1000 579 region insert vx 0.0 0.0 vy 0 0 vz -219.776405126004 -219.776405126004 units box

fix     	2 mobile nve
fix             3 insert nve

run		2000
Per MPI rank memory allocation (min/avg/max) = 160.1 | 160.1 | 160.1 Mbytes
   Step        Atoms      v_nmobile      v_ninject         Temp          TotEng    
      4000        1057   960            1              310.41046     -5429.0533    
      4100        1058   960            2              310.72377     -5428.2572    
      4200        1058   960            2              744.51547     -5350.4441    
      4300        1058   960            2              710.6062      -5350.1358    
      4400        1058   960            2              650.9234      -5338.7827    
      4500        1058   960            2              536.47845     -5338.9607    
      4600        1058   960            2              509.7637      -5338.2937    
      4700        1058   960            2              525.93201     -5336.3457    
      4800        1058   960            2              533.96028     -5335.7127    
      4900        1058   960            2              550.45648     -5334.1481    
      5000        1058   960            2              583.44154     -5331.1303    
      5100        1058   960            2              581.40349     -5331.1224    
      5200        1058   960            2              578.08071     -5331.0587    
      5300        1058   960            2              581.92439     -5330.8875    
      5400        1058   960            2              622.08947     -5330.4621    
      5500        1058   960            2              595.55235     -5330.5097    
      5600        1058   960            2              573.81698     -5329.6872    
      5700        1058   960            2              593.3288      -5329.7835    
      5800        1058   960            2              591.50429     -5329.8814    
      5900        1058   960            2              568.44339     -5329.8222    
      6000        1058   960            2              572.90941     -5329.3944    
Loop time of 376.427 on 1 procs for 2000 steps with 1058 atoms

Performance: 0.230 ns/day, 104.563 hours/ns, 5.313 timesteps/s, 5.621 katom-step/s
99.5% CPU use with 1 MPI tasks x 1 OpenMP threads

MPI task timing breakdown:
Section |  min time  |  avg time  |  max time  |%varavg| %total
---------------------------------------------------------------
Pair    | 375.52     | 375.52     | 375.52     |   0.0 | 99.76
Neigh   | 0.092272   | 0.092272   | 0.092272   |   0.0 |  0.02
Comm    | 0.35464    | 0.35464    | 0.35464    |   0.0 |  0.09
Output  | 0.034245   | 0.034245   | 0.034245   |   0.0 |  0.01
Modify  | 0.25586    | 0.25586    | 0.25586    |   0.0 |  0.07
Other   |            | 0.1661     |            |       |  0.04

Nlocal:           1058 ave        1058 max        1058 min
Histogram: 1 0 0 0 0 0 0 0 0 0
Nghost:           1897 ave        1897 max        1897 min
Histogram: 1 0 0 0 0 0 0 0 0 0
Neighs:              0 ave           0 max           0 min
Histogram: 1 0 0 0 0 0 0 0 0 0
FullNghs:        74226 ave       74226 max       74226 min
Histogram: 1 0 0 0 0 0 0 0 0 0

Total # of neighbors = 74226
Ave neighs/atom = 70.1569
Neighbor list builds = 400
Dangerous builds not checked

unfix      	depo

fix        	1coolB mobile temp/berendsen 298.0 298.0 0.1
fix        	2coolB insert temp/berendsen 298.0 298.0 0.1

run		2000
Per MPI rank memory allocation (min/avg/max) = 159.9 | 159.9 | 159.9 Mbytes
   Step        Atoms      v_nmobile      v_ninject         Temp          TotEng    
      6000        1058   960            2              572.90941     -5329.3944    
      6100        1058   960            2              501.77938     -5344.217     
      6200        1058   960            2              462.53847     -5355.6129    
      6300        1058   960            2              440.70356     -5365.4487    
      6400        1058   960            2              417.25005     -5373.7068    
      6500        1058   960            2              393.67228     -5380.1307    
      6600        1058   960            2              379.4347      -5385.6764    
      6700        1058   960            2              362.99426     -5390.2432    
      6800        1058   960            2              356.98202     -5393.9769    
      6900        1058   960            2              335.49472     -5396.7848    
      7000        1058   960            2              337.12475     -5399.3054    
      7100        1058   960            2              338.46223     -5401.5599    
      7200        1058   960            2              327.08522     -5403.5361    
      7300        1058   960            2              322.52337     -5405.2688    
      7400        1058   960            2              323.51351     -5407.0271    
      7500        1058   960            2              326.2519      -5408.656     
      7600        1058   960            2              315.16423     -5410.3221    
      7700        1058   960            2              324.71103     -5411.5866    
      7800        1058   960            2              313.3944      -5412.8799    
      7900        1058   960            2              321.1551      -5413.5228    
      8000        1058   960            2              323.50317     -5414.897     
Loop time of 377.607 on 1 procs for 2000 steps with 1058 atoms

Performance: 0.229 ns/day, 104.891 hours/ns, 5.297 timesteps/s, 5.604 katom-step/s
99.5% CPU use with 1 MPI tasks x 1 OpenMP threads

MPI task timing breakdown:
Section |  min time  |  avg time  |  max time  |%varavg| %total
---------------------------------------------------------------
Pair    | 376.97     | 376.97     | 376.97     |   0.0 | 99.83
Neigh   | 0.090705   | 0.090705   | 0.090705   |   0.0 |  0.02
Comm    | 0.31333    | 0.31333    | 0.31333    |   0.0 |  0.08
Output  | 0.016891   | 0.016891   | 0.016891   |   0.0 |  0.00
Modify  | 0.1798     | 0.1798     | 0.1798     |   0.0 |  0.05
Other   |            | 0.0378     |            |       |  0.01

Nlocal:           1058 ave        1058 max        1058 min
Histogram: 1 0 0 0 0 0 0 0 0 0
Nghost:           1912 ave        1912 max        1912 min
Histogram: 1 0 0 0 0 0 0 0 0 0
Neighs:              0 ave           0 max           0 min
Histogram: 1 0 0 0 0 0 0 0 0 0
FullNghs:        72866 ave       72866 max       72866 min
Histogram: 1 0 0 0 0 0 0 0 0 0

Total # of neighbors = 72866
Ave neighs/atom = 68.871456
Neighbor list builds = 400
Dangerous builds not checked

unfix           1coolB
unfix           2coolB

delete_atoms    region del
Deleted 0 atoms, new total = 1058

next		a
jump		in_cpu.lammps loop

variable    	c equal ${c}+1
variable    	c equal 2+1
variable    	deposeed equal floor(random(1,3245,${c}))
variable    	deposeed equal floor(random(1,3245,3))

fix		depo insert deposit 1 2 1000 ${deposeed} region insert vx 0.0 0.0 vy ${vely} ${vely} vz -${velz} -${velz} units box
fix		depo insert deposit 1 2 1000 2145 region insert vx 0.0 0.0 vy ${vely} ${vely} vz -${velz} -${velz} units box
fix		depo insert deposit 1 2 1000 2145 region insert vx 0.0 0.0 vy 0 ${vely} vz -${velz} -${velz} units box
fix		depo insert deposit 1 2 1000 2145 region insert vx 0.0 0.0 vy 0 0 vz -${velz} -${velz} units box
fix		depo insert deposit 1 2 1000 2145 region insert vx 0.0 0.0 vy 0 0 vz -219.776405126004 -${velz} units box
fix		depo insert deposit 1 2 1000 2145 region insert vx 0.0 0.0 vy 0 0 vz -219.776405126004 -219.776405126004 units box

fix     	2 mobile nve
fix             3 insert nve

run		2000
Per MPI rank memory allocation (min/avg/max) = 160.2 | 160.2 | 160.2 Mbytes
   Step        Atoms      v_nmobile      v_ninject         Temp          TotEng    
      8000        1058   960            2              323.50317     -5414.897     
      8100        1059   960            3              329.93867     -5414.8182    
      8200        1059   960            3              439.84763     -5398.3966    
      8300        1059   960            3              641.63613     -5350.2309    
      8400        1059   960            3              628.20938     -5338.2047    
      8500        1059   960            3              599.85759     -5331.7596    
      8600        1059   960            3              611.98654     -5317.1711    
      8700        1059   960            3              587.97858     -5317.1517    
      8800        1059   960            3              576.28642     -5315.2614    
      8900        1059   960            3              538.30074     -5315.3378    
      9000        1059   960            3              571.7432      -5315.3675    
      9100        1059   960            3              602.40153     -5315.3226    
      9200        1059   960            3              607.06087     -5315.3071    
      9300        1059   960            3              594.90894     -5315.1655    
      9400        1059   960            3              602.12462     -5315.2103    
      9500        1059   960            3              626.847       -5315.3393    
      9600        1059   960            3              601.41585     -5315.2204    
      9700        1059   960            3              602.91859     -5315.2379    
      9800        1059   960            3              616.99912     -5315.3518    
      9900        1059   960            3              613.31038     -5315.4413    
     10000        1059   960            3              598.37659     -5315.4284    
Loop time of 376.301 on 1 procs for 2000 steps with 1059 atoms

Performance: 0.230 ns/day, 104.528 hours/ns, 5.315 timesteps/s, 5.628 katom-step/s
99.5% CPU use with 1 MPI tasks x 1 OpenMP threads

MPI task timing breakdown:
Section |  min time  |  avg time  |  max time  |%varavg| %total
---------------------------------------------------------------
Pair    | 375.41     | 375.41     | 375.41     |   0.0 | 99.76
Neigh   | 0.091212   | 0.091212   | 0.091212   |   0.0 |  0.02
Comm    | 0.35845    | 0.35845    | 0.35845    |   0.0 |  0.10
Output  | 0.016182   | 0.016182   | 0.016182   |   0.0 |  0.00
Modify  | 0.25913    | 0.25913    | 0.25913    |   0.0 |  0.07
Other   |            | 0.1665     |            |       |  0.04

Nlocal:           1059 ave        1059 max        1059 min
Histogram: 1 0 0 0 0 0 0 0 0 0
Nghost:           1894 ave        1894 max        1894 min
Histogram: 1 0 0 0 0 0 0 0 0 0
Neighs:              0 ave           0 max           0 min
Histogram: 1 0 0 0 0 0 0 0 0 0
FullNghs:        72660 ave       72660 max       72660 min
Histogram: 1 0 0 0 0 0 0 0 0 0

Total # of neighbors = 72660
Ave neighs/atom = 68.611898
Neighbor list builds = 400
Dangerous builds not checked

unfix      	depo

fix        	1coolB mobile temp/berendsen 298.0 298.0 0.1
fix        	2coolB insert temp/berendsen 298.0 298.0 0.1

run		2000
Per MPI rank memory allocation (min/avg/max) = 160.2 | 160.2 | 160.2 Mbytes
   Step        Atoms      v_nmobile      v_ninject         Temp          TotEng    
     10000        1059   960            3              598.37659     -5315.4284    
     10100        1059   960            3              538.48264     -5331.7126    
     10200        1059   960            3              514.30632     -5346.3377    
     10300        1059   960            3              470.77514     -5358.8014    
     10400        1059   960            3              428.3796      -5368.5511    
     10500        1059   960            3              400.79494     -5376.1714    
     10600        1059   960            3              389.01003     -5382.3279    
     10700        1059   960            3              381.34894     -5388.0122    
     10800        1059   960            3              353.73614     -5392.2365    
     10900        1059   960            3              351.32335     -5395.3717    
     11000        1059   960            3              345.75986     -5398.6714    
     11100        1059   960            3              331.05802     -5401.3054    
     11200        1059   960            3              331.758       -5403.0877    
     11300        1059   960            3              328.54208     -5404.7639    
     11400        1059   960            3              317.09173     -5406.1902    
     11500        1059   960            3              316.34883     -5407.2581    
     11600        1059   960            3              308.59347     -5408.3265    
     11700        1059   960            3              310.67447     -5409.3505    
     11800        1059   960            3              304.16905     -5410.1605    
     11900        1059   960            3              302.37933     -5410.4741    
     12000        1059   960            3              311.15386     -5411.4143    
Loop time of 376.453 on 1 procs for 2000 steps with 1059 atoms

Performance: 0.230 ns/day, 104.570 hours/ns, 5.313 timesteps/s, 5.626 katom-step/s
99.5% CPU use with 1 MPI tasks x 1 OpenMP threads

MPI task timing breakdown:
Section |  min time  |  avg time  |  max time  |%varavg| %total
---------------------------------------------------------------
Pair    | 375.81     | 375.81     | 375.81     |   0.0 | 99.83
Neigh   | 0.091174   | 0.091174   | 0.091174   |   0.0 |  0.02
Comm    | 0.31362    | 0.31362    | 0.31362    |   0.0 |  0.08
Output  | 0.018502   | 0.018502   | 0.018502   |   0.0 |  0.00
Modify  | 0.18011    | 0.18011    | 0.18011    |   0.0 |  0.05
Other   |            | 0.03813    |            |       |  0.01

Nlocal:           1059 ave        1059 max        1059 min
Histogram: 1 0 0 0 0 0 0 0 0 0
Nghost:           1908 ave        1908 max        1908 min
Histogram: 1 0 0 0 0 0 0 0 0 0
Neighs:              0 ave           0 max           0 min
Histogram: 1 0 0 0 0 0 0 0 0 0
FullNghs:        72778 ave       72778 max       72778 min
Histogram: 1 0 0 0 0 0 0 0 0 0

Total # of neighbors = 72778
Ave neighs/atom = 68.723324
Neighbor list builds = 400
Dangerous builds not checked

unfix           1coolB
unfix           2coolB

delete_atoms    region del
Deleted 0 atoms, new total = 1059

next		a
jump		in_cpu.lammps loop

variable    	c equal ${c}+1
variable    	c equal 3+1
variable    	deposeed equal floor(random(1,3245,${c}))
variable    	deposeed equal floor(random(1,3245,4))

fix		depo insert deposit 1 2 1000 ${deposeed} region insert vx 0.0 0.0 vy ${vely} ${vely} vz -${velz} -${velz} units box
fix		depo insert deposit 1 2 1000 1063 region insert vx 0.0 0.0 vy ${vely} ${vely} vz -${velz} -${velz} units box
fix		depo insert deposit 1 2 1000 1063 region insert vx 0.0 0.0 vy 0 ${vely} vz -${velz} -${velz} units box
fix		depo insert deposit 1 2 1000 1063 region insert vx 0.0 0.0 vy 0 0 vz -${velz} -${velz} units box
fix		depo insert deposit 1 2 1000 1063 region insert vx 0.0 0.0 vy 0 0 vz -219.776405126004 -${velz} units box
fix		depo insert deposit 1 2 1000 1063 region insert vx 0.0 0.0 vy 0 0 vz -219.776405126004 -219.776405126004 units box

fix     	2 mobile nve
fix             3 insert nve

run		2000
Per MPI rank memory allocation (min/avg/max) = 160.2 | 160.2 | 160.2 Mbytes
   Step        Atoms      v_nmobile      v_ninject         Temp          TotEng    
     12000        1059   960            3              311.15386     -5411.4143    
     12100        1060   960            4              302.48057     -5411.3486    
     12200        1060   960            4              958.88372     -5316.2037    
     12300        1060   960            4              799.77082     -5316.3019    
     12400        1060   960            4              642.91155     -5312.1859    
     12500        1060   960            4              555.96497     -5311.7554    
     12600        1060   960            4              539.79473     -5311.7412    
     12700        1060   960            4              589.34756     -5311.69      
     12800        1060   960            4              620.79998     -5311.7268    
     12900        1060   960            4              636.97879     -5311.7353    
     13000        1060   960            4              626.66069     -5311.7394    
     13100        1060   960            4              618.03334     -5311.6966    
     13200        1060   960            4              640.99585     -5311.8599    
     13300        1060   960            4              644.1417      -5311.6776    
     13400        1060   960            4              647.85766     -5311.4603    
     13500        1060   960            4              645.96745     -5311.4787    
     13600        1060   960            4              627.04158     -5311.5084    
     13700        1060   960            4              624.18342     -5311.5827    
     13800        1060   960            4              611.90105     -5311.65      
     13900        1060   960            4              618.23726     -5311.6293    
     14000        1060   960            4              609.86414     -5311.593     
Loop time of 376.371 on 1 procs for 2000 steps with 1060 atoms

Performance: 0.230 ns/day, 104.548 hours/ns, 5.314 timesteps/s, 5.633 katom-step/s
99.5% CPU use with 1 MPI tasks x 1 OpenMP threads

MPI task timing breakdown:
Section |  min time  |  avg time  |  max time  |%varavg| %total
---------------------------------------------------------------
Pair    | 375.48     | 375.48     | 375.48     |   0.0 | 99.76
Neigh   | 0.091177   | 0.091177   | 0.091177   |   0.0 |  0.02
Comm    | 0.35863    | 0.35863    | 0.35863    |   0.0 |  0.10
Output  | 0.018051   | 0.018051   | 0.018051   |   0.0 |  0.00
Modify  | 0.25908    | 0.25908    | 0.25908    |   0.0 |  0.07
Other   |            | 0.1668     |            |       |  0.04

Nlocal:           1060 ave        1060 max        1060 min
Histogram: 1 0 0 0 0 0 0 0 0 0
Nghost:           1884 ave        1884 max        1884 min
Histogram: 1 0 0 0 0 0 0 0 0 0
Neighs:              0 ave           0 max           0 min
Histogram: 1 0 0 0 0 0 0 0 0 0
FullNghs:        72588 ave       72588 max       72588 min
Histogram: 1 0 0 0 0 0 0 0 0 0

Total # of neighbors = 72588
Ave neighs/atom = 68.479245
Neighbor list builds = 400
Dangerous builds not checked

unfix      	depo

fix        	1coolB mobile temp/berendsen 298.0 298.0 0.1
fix        	2coolB insert temp/berendsen 298.0 298.0 0.1

run		2000
Per MPI rank memory allocation (min/avg/max) = 160.2 | 160.2 | 160.2 Mbytes
   Step        Atoms      v_nmobile      v_ninject         Temp          TotEng    
     14000        1060   960            4              609.86414     -5311.593     
     14100        1060   960            4              562.66564     -5329.5383    
     14200        1060   960            4              522.90843     -5344.7211    
     14300        1060   960            4              481.93824     -5357.7171    
     14400        1060   960            4              438.31683     -5367.7921    
     14500        1060   960            4              408.9999      -5375.4656    
     14600        1060   960            4              384.29        -5381.7734    
     14700        1060   960            4              370.21093     -5386.9799    
     14800        1060   960            4              355.75835     -5391.2747    
     14900        1060   960            4              354.80624     -5394.9448    
     15000        1060   960            4              336.45626     -5397.5019    
     15100        1060   960            4              340.06745     -5400.0144    
     15200        1060   960            4              329.18721     -5402.1417    
     15300        1060   960            4              322.95338     -5403.8481    
     15400        1060   960            4              321.83997     -5405.2463    
     15500        1060   960            4              321.75656     -5406.7261    
     15600        1060   960            4              317.32457     -5407.9582    
     15700        1060   960            4              303.47339     -5408.9954    
     15800        1060   960            4              309.54222     -5409.5146    
     15900        1060   960            4              302.07504     -5410.1384    
     16000        1060   960            4              313.38193     -5410.689     
Loop time of 377.254 on 1 procs for 2000 steps with 1060 atoms

Performance: 0.229 ns/day, 104.793 hours/ns, 5.301 timesteps/s, 5.620 katom-step/s
99.5% CPU use with 1 MPI tasks x 1 OpenMP threads

MPI task timing breakdown:
Section |  min time  |  avg time  |  max time  |%varavg| %total
---------------------------------------------------------------
Pair    | 376.61     | 376.61     | 376.61     |   0.0 | 99.83
Neigh   | 0.090684   | 0.090684   | 0.090684   |   0.0 |  0.02
Comm    | 0.31478    | 0.31478    | 0.31478    |   0.0 |  0.08
Output  | 0.024261   | 0.024261   | 0.024261   |   0.0 |  0.01
Modify  | 0.18118    | 0.18118    | 0.18118    |   0.0 |  0.05
Other   |            | 0.03786    |            |       |  0.01

Nlocal:           1060 ave        1060 max        1060 min
Histogram: 1 0 0 0 0 0 0 0 0 0
Nghost:           1910 ave        1910 max        1910 min
Histogram: 1 0 0 0 0 0 0 0 0 0
Neighs:              0 ave           0 max           0 min
Histogram: 1 0 0 0 0 0 0 0 0 0
FullNghs:        73264 ave       73264 max       73264 min
Histogram: 1 0 0 0 0 0 0 0 0 0

Total # of neighbors = 73264
Ave neighs/atom = 69.116981
Neighbor list builds = 400
Dangerous builds not checked

unfix           1coolB
unfix           2coolB

delete_atoms    region del
Deleted 0 atoms, new total = 1060

next		a
jump		in_cpu.lammps loop

variable    	c equal ${c}+1
variable    	c equal 4+1
variable    	deposeed equal floor(random(1,3245,${c}))
variable    	deposeed equal floor(random(1,3245,5))

fix		depo insert deposit 1 2 1000 ${deposeed} region insert vx 0.0 0.0 vy ${vely} ${vely} vz -${velz} -${velz} units box
fix		depo insert deposit 1 2 1000 2607 region insert vx 0.0 0.0 vy ${vely} ${vely} vz -${velz} -${velz} units box
fix		depo insert deposit 1 2 1000 2607 region insert vx 0.0 0.0 vy 0 ${vely} vz -${velz} -${velz} units box
fix		depo insert deposit 1 2 1000 2607 region insert vx 0.0 0.0 vy 0 0 vz -${velz} -${velz} units box
fix		depo insert deposit 1 2 1000 2607 region insert vx 0.0 0.0 vy 0 0 vz -219.776405126004 -${velz} units box
fix		depo insert deposit 1 2 1000 2607 region insert vx 0.0 0.0 vy 0 0 vz -219.776405126004 -219.776405126004 units box

fix     	2 mobile nve
fix             3 insert nve

run		2000
Per MPI rank memory allocation (min/avg/max) = 160.2 | 160.2 | 160.2 Mbytes
   Step        Atoms      v_nmobile      v_ninject         Temp          TotEng    
     16000        1060   960            4              313.38193     -5410.689     
     16100        1061   960            5              318.95268     -5410.3329    
     16200        1061   960            5              338.08444     -5401.1164    
     16300        1061   960            5              851.77866     -5325.5566    
     16400        1061   960            5              713.71209     -5324.6181    
     16500        1061   960            5              663.49947     -5311.6626    
     16600        1061   960            5              585.02482     -5311.2538    
     16700        1061   960            5              582.14464     -5311.3833    
     16800        1061   960            5              588.16477     -5311.4804    
     16900        1061   960            5              587.4651      -5311.4282    
     17000        1061   960            5              590.65722     -5311.4423    
     17100        1061   960            5              610.07615     -5310.8495    
     17200        1061   960            5              644.30877     -5310.8363    
     17300        1061   960            5              626.79684     -5310.736     
     17400        1061   960            5              651.4327      -5310.8552    
     17500        1061   960            5              639.40038     -5311.0119    
     17600        1061   960            5              636.55218     -5311.3281    
     17700        1061   960            5              607.4305      -5311.2368    
     17800        1061   960            5              592.53582     -5311.2391    
     17900        1061   960            5              643.49662     -5311.3036    
     18000        1061   960            5              605.82054     -5311.5659    
Loop time of 375.688 on 1 procs for 2000 steps with 1061 atoms

Performance: 0.230 ns/day, 104.358 hours/ns, 5.324 timesteps/s, 5.648 katom-step/s
99.5% CPU use with 1 MPI tasks x 1 OpenMP threads

MPI task timing breakdown:
Section |  min time  |  avg time  |  max time  |%varavg| %total
---------------------------------------------------------------
Pair    | 374.8      | 374.8      | 374.8      |   0.0 | 99.76
Neigh   | 0.091928   | 0.091928   | 0.091928   |   0.0 |  0.02
Comm    | 0.35581    | 0.35581    | 0.35581    |   0.0 |  0.09
Output  | 0.017585   | 0.017585   | 0.017585   |   0.0 |  0.00
Modify  | 0.25753    | 0.25753    | 0.25753    |   0.0 |  0.07
Other   |            | 0.1659     |            |       |  0.04

Nlocal:           1061 ave        1061 max        1061 min
Histogram: 1 0 0 0 0 0 0 0 0 0
Nghost:           1883 ave        1883 max        1883 min
Histogram: 1 0 0 0 0 0 0 0 0 0
Neighs:              0 ave           0 max           0 min
Histogram: 1 0 0 0 0 0 0 0 0 0
FullNghs:        72274 ave       72274 max       72274 min
Histogram: 1 0 0 0 0 0 0 0 0 0

Total # of neighbors = 72274
Ave neighs/atom = 68.118756
Neighbor list builds = 400
Dangerous builds not checked

unfix      	depo

fix        	1coolB mobile temp/berendsen 298.0 298.0 0.1
fix        	2coolB insert temp/berendsen 298.0 298.0 0.1

run		2000
Per MPI rank memory allocation (min/avg/max) = 160.3 | 160.3 | 160.3 Mbytes
   Step        Atoms      v_nmobile      v_ninject         Temp          TotEng    
     18000        1061   960            5              605.82054     -5311.5659    
     18100        1061   960            5              530.30994     -5328.5078    
     18200        1061   960            5              507.08882     -5342.5603    
     18300        1061   960            5              466.06562     -5353.8704    
     18400        1061   960            5              431.65667     -5363.3616    
     18500        1061   960            5              417.07465     -5371.4583    
     18600        1061   960            5              398.0803      -5378.4308    
     18700        1061   960            5              362.16916     -5383.7495    
     18800        1061   960            5              362.24758     -5387.6525    
     18900        1061   960            5              349.4782      -5390.8902    
     19000        1061   960            5              344.51779     -5393.8205    
     19100        1061   960            5              342.64235     -5396.6393    
     19200        1061   960            5              330.26239     -5399.0012    
     19300        1061   960            5              316.10746     -5400.5621    
     19400        1061   960            5              320.4735      -5402.272     
     19500        1061   960            5              320.64274     -5403.7606    
     19600        1061   960            5              310.91876     -5404.4806    
     19700        1061   960            5              305.66905     -5405.1257    
     19800        1061   960            5              310.49719     -5405.5068    
     19900        1061   960            5              309.91701     -5406.2666    
     20000        1061   960            5              301.5687      -5406.9426    
Loop time of 375.593 on 1 procs for 2000 steps with 1061 atoms

Performance: 0.230 ns/day, 104.331 hours/ns, 5.325 timesteps/s, 5.650 katom-step/s
99.5% CPU use with 1 MPI tasks x 1 OpenMP threads

MPI task timing breakdown:
Section |  min time  |  avg time  |  max time  |%varavg| %total
---------------------------------------------------------------
Pair    | 374.96     | 374.96     | 374.96     |   0.0 | 99.83
Neigh   | 0.090245   | 0.090245   | 0.090245   |   0.0 |  0.02
Comm    | 0.30951    | 0.30951    | 0.30951    |   0.0 |  0.08
Output  | 0.019949   | 0.019949   | 0.019949   |   0.0 |  0.01
Modify  | 0.17582    | 0.17582    | 0.17582    |   0.0 |  0.05
Other   |            | 0.03643    |            |       |  0.01

Nlocal:           1061 ave        1061 max        1061 min
Histogram: 1 0 0 0 0 0 0 0 0 0
Nghost:           1894 ave        1894 max        1894 min
Histogram: 1 0 0 0 0 0 0 0 0 0
Neighs:              0 ave           0 max           0 min
Histogram: 1 0 0 0 0 0 0 0 0 0
FullNghs:        72336 ave       72336 max       72336 min
Histogram: 1 0 0 0 0 0 0 0 0 0

Total # of neighbors = 72336
Ave neighs/atom = 68.177191
Neighbor list builds = 400
Dangerous builds not checked

unfix           1coolB
unfix           2coolB

delete_atoms    region del
Deleted 0 atoms, new total = 1061

next		a
jump		in_cpu.lammps loop

variable    	c equal ${c}+1
variable    	c equal 5+1
variable    	deposeed equal floor(random(1,3245,${c}))
variable    	deposeed equal floor(random(1,3245,6))

fix		depo insert deposit 1 2 1000 ${deposeed} region insert vx 0.0 0.0 vy ${vely} ${vely} vz -${velz} -${velz} units box
fix		depo insert deposit 1 2 1000 664 region insert vx 0.0 0.0 vy ${vely} ${vely} vz -${velz} -${velz} units box
fix		depo insert deposit 1 2 1000 664 region insert vx 0.0 0.0 vy 0 ${vely} vz -${velz} -${velz} units box
fix		depo insert deposit 1 2 1000 664 region insert vx 0.0 0.0 vy 0 0 vz -${velz} -${velz} units box
fix		depo insert deposit 1 2 1000 664 region insert vx 0.0 0.0 vy 0 0 vz -219.776405126004 -${velz} units box
fix		depo insert deposit 1 2 1000 664 region insert vx 0.0 0.0 vy 0 0 vz -219.776405126004 -219.776405126004 units box

fix     	2 mobile nve
fix             3 insert nve

run		2000
Per MPI rank memory allocation (min/avg/max) = 160.4 | 160.4 | 160.4 Mbytes
   Step        Atoms      v_nmobile      v_ninject         Temp          TotEng    
     20000        1061   960            5              301.5687      -5406.9426    
     20100        1062   960            6              293.98106     -5406.7244    
     20200        1062   960            6              304.78464     -5404.6479    
     20300        1062   960            6              671.8574      -5353.4218    
     20400        1062   960            6              596.6134      -5346.5366    
     20500        1062   960            6              530.19888     -5345.2558    
     20600        1062   960            6              495.22475     -5343.1854    
     20700        1062   960            6              446.67927     -5340.1226    
WARNING: Lost atoms: original 1062 current 1061
For more information see https://docs.lammps.org/err0008 (src/thermo.cpp:556)
     20800        1061   960            5              471.62635     -5340.5578    
     20900        1061   960            5              500.1115      -5340.5805    
     21000        1061   960            5              524.12722     -5340.5931    
     21100        1061   960            5              508.52174     -5340.5126    
     21200        1061   960            5              520.84938     -5340.4812    
     21300        1061   960            5              522.6527      -5340.4649    
     21400        1061   960            5              517.9448      -5340.4777    
     21500        1061   960            5              524.31022     -5340.5468    
     21600        1061   960            5              515.03304     -5340.4474    
     21700        1061   960            5              519.20638     -5340.4953    
     21800        1061   960            5              537.0492      -5340.5248    
     21900        1061   960            5              558.44802     -5340.5447    
     22000        1061   960            5              536.80072     -5340.5941    
Loop time of 375.359 on 1 procs for 2000 steps with 1061 atoms

Performance: 0.230 ns/day, 104.266 hours/ns, 5.328 timesteps/s, 5.653 katom-step/s
99.5% CPU use with 1 MPI tasks x 1 OpenMP threads

MPI task timing breakdown:
Section |  min time  |  avg time  |  max time  |%varavg| %total
---------------------------------------------------------------
Pair    | 374.47     | 374.47     | 374.47     |   0.0 | 99.76
Neigh   | 0.09169    | 0.09169    | 0.09169    |   0.0 |  0.02
Comm    | 0.35582    | 0.35582    | 0.35582    |   0.0 |  0.09
Output  | 0.018114   | 0.018114   | 0.018114   |   0.0 |  0.00
Modify  | 0.25717    | 0.25717    | 0.25717    |   0.0 |  0.07
Other   |            | 0.1659     |            |       |  0.04

Nlocal:           1061 ave        1061 max        1061 min
Histogram: 1 0 0 0 0 0 0 0 0 0
Nghost:           1891 ave        1891 max        1891 min
Histogram: 1 0 0 0 0 0 0 0 0 0
Neighs:              0 ave           0 max           0 min
Histogram: 1 0 0 0 0 0 0 0 0 0
FullNghs:        71992 ave       71992 max       71992 min
Histogram: 1 0 0 0 0 0 0 0 0 0

Total # of neighbors = 71992
Ave neighs/atom = 67.852969
Neighbor list builds = 400
Dangerous builds not checked

unfix      	depo

fix        	1coolB mobile temp/berendsen 298.0 298.0 0.1
fix        	2coolB insert temp/berendsen 298.0 298.0 0.1

run		2000
Per MPI rank memory allocation (min/avg/max) = 160.4 | 160.4 | 160.4 Mbytes
   Step        Atoms      v_nmobile      v_ninject         Temp          TotEng    
     22000        1061   960            5              536.80072     -5340.5941    
     22100        1061   960            5              481.92687     -5352.8976    
     22200        1061   960            5              451.57535     -5363.6625    
     22300        1061   960            5              399.61222     -5372.1836    
     22400        1061   960            5              387.58218     -5378.4994    
     22500        1061   960            5              380.80472     -5384.2755    
     22600        1061   960            5              370.08023     -5389.2167    
     22700        1061   960            5              348.25814     -5392.6821    
     22800        1061   960            5              328.61886     -5395.1351    
     22900        1061   960            5              353.86933     -5397.4342    
     23000        1061   960            5              326.488       -5399.8774    
     23100        1061   960            5              315.6652      -5401.3894    
     23200        1061   960            5              321.12499     -5402.8895    
     23300        1061   960            5              316.1101      -5404.4427    
     23400        1061   960            5              315.10202     -5405.3206    
     23500        1061   960            5              314.75783     -5406.5011    
     23600        1061   960            5              317.81471     -5407.5245    
     23700        1061   960            5              310.52465     -5408.0003    
     23800        1061   960            5              312.63491     -5408.7457    
     23900        1061   960            5              303.83725     -5409.2705    
     24000        1061   960            5              302.13327     -5409.383     
Loop time of 375.183 on 1 procs for 2000 steps with 1061 atoms

Performance: 0.230 ns/day, 104.217 hours/ns, 5.331 timesteps/s, 5.656 katom-step/s
99.5% CPU use with 1 MPI tasks x 1 OpenMP threads

MPI task timing breakdown:
Section |  min time  |  avg time  |  max time  |%varavg| %total
---------------------------------------------------------------
Pair    | 374.49     | 374.49     | 374.49     |   0.0 | 99.82
Neigh   | 0.090638   | 0.090638   | 0.090638   |   0.0 |  0.02
Comm    | 0.3128     | 0.3128     | 0.3128     |   0.0 |  0.08
Output  | 0.069953   | 0.069953   | 0.069953   |   0.0 |  0.02
Modify  | 0.17961    | 0.17961    | 0.17961    |   0.0 |  0.05
Other   |            | 0.03727    |            |       |  0.01

Nlocal:           1061 ave        1061 max        1061 min
Histogram: 1 0 0 0 0 0 0 0 0 0
Nghost:           1873 ave        1873 max        1873 min
Histogram: 1 0 0 0 0 0 0 0 0 0
Neighs:              0 ave           0 max           0 min
Histogram: 1 0 0 0 0 0 0 0 0 0
FullNghs:        72104 ave       72104 max       72104 min
Histogram: 1 0 0 0 0 0 0 0 0 0

Total # of neighbors = 72104
Ave neighs/atom = 67.95853
Neighbor list builds = 400
Dangerous builds not checked

unfix           1coolB
unfix           2coolB

delete_atoms    region del
Deleted 0 atoms, new total = 1061

next		a
jump		in_cpu.lammps loop

variable    	c equal ${c}+1
variable    	c equal 6+1
variable    	deposeed equal floor(random(1,3245,${c}))
variable    	deposeed equal floor(random(1,3245,7))

fix		depo insert deposit 1 2 1000 ${deposeed} region insert vx 0.0 0.0 vy ${vely} ${vely} vz -${velz} -${velz} units box
fix		depo insert deposit 1 2 1000 1157 region insert vx 0.0 0.0 vy ${vely} ${vely} vz -${velz} -${velz} units box
fix		depo insert deposit 1 2 1000 1157 region insert vx 0.0 0.0 vy 0 ${vely} vz -${velz} -${velz} units box
fix		depo insert deposit 1 2 1000 1157 region insert vx 0.0 0.0 vy 0 0 vz -${velz} -${velz} units box
fix		depo insert deposit 1 2 1000 1157 region insert vx 0.0 0.0 vy 0 0 vz -219.776405126004 -${velz} units box
fix		depo insert deposit 1 2 1000 1157 region insert vx 0.0 0.0 vy 0 0 vz -219.776405126004 -219.776405126004 units box

fix     	2 mobile nve
fix             3 insert nve

run		2000
Per MPI rank memory allocation (min/avg/max) = 160.3 | 160.3 | 160.3 Mbytes
   Step        Atoms      v_nmobile      v_ninject         Temp          TotEng    
     24000        1061   960            5              302.13327     -5409.383     
     24100        1062   960            6              313.15319     -5409.318     
     24200        1062   960            6              675.72623     -5336.9437    
     24300        1062   960            6              646.3045      -5334.1284    
     24400        1062   960            6              557.95926     -5335.2039    
     24500        1062   960            6              491.04479     -5334.8473    
     24600        1062   960            6              516.37873     -5332.3714    
     24700        1062   960            6              550.03612     -5328.3711    
     24800        1062   960            6              543.30063     -5326.0555    
     24900        1062   960            6              577.96146     -5318.7569    
     25000        1062   960            6              540.14055     -5318.7306    
     25100        1062   960            6              578.2187      -5313.5424    
     25200        1062   960            6              553.86083     -5313.6711    
     25300        1062   960            6              596.81806     -5313.4596    
     25400        1062   960            6              594.02287     -5313.3103    
     25500        1062   960            6              596.76179     -5313.335     
     25600        1062   960            6              606.54895     -5313.5208    
     25700        1062   960            6              579.17639     -5313.7095    
     25800        1061   960            5              572.99837     -5313.6651    
     25900        1061   960            5              578.78791     -5313.774     
     26000        1061   960            5              607.85732     -5313.7911    
Loop time of 374.203 on 1 procs for 2000 steps with 1061 atoms

Performance: 0.231 ns/day, 103.945 hours/ns, 5.345 timesteps/s, 5.671 katom-step/s
99.5% CPU use with 1 MPI tasks x 1 OpenMP threads

MPI task timing breakdown:
Section |  min time  |  avg time  |  max time  |%varavg| %total
---------------------------------------------------------------
Pair    | 373.3      | 373.3      | 373.3      |   0.0 | 99.76
Neigh   | 0.090546   | 0.090546   | 0.090546   |   0.0 |  0.02
Comm    | 0.3554     | 0.3554     | 0.3554     |   0.0 |  0.09
Output  | 0.033424   | 0.033424   | 0.033424   |   0.0 |  0.01
Modify  | 0.25735    | 0.25735    | 0.25735    |   0.0 |  0.07
Other   |            | 0.1665     |            |       |  0.04

Nlocal:           1061 ave        1061 max        1061 min
Histogram: 1 0 0 0 0 0 0 0 0 0
Nghost:           1872 ave        1872 max        1872 min
Histogram: 1 0 0 0 0 0 0 0 0 0
Neighs:              0 ave           0 max           0 min
Histogram: 1 0 0 0 0 0 0 0 0 0
FullNghs:        71800 ave       71800 max       71800 min
Histogram: 1 0 0 0 0 0 0 0 0 0

Total # of neighbors = 71800
Ave neighs/atom = 67.672008
Neighbor list builds = 400
Dangerous builds not checked

unfix      	depo

fix        	1coolB mobile temp/berendsen 298.0 298.0 0.1
fix        	2coolB insert temp/berendsen 298.0 298.0 0.1

run		2000
Per MPI rank memory allocation (min/avg/max) = 160.3 | 160.3 | 160.3 Mbytes
   Step        Atoms      v_nmobile      v_ninject         Temp          TotEng    
     26000        1061   960            5              607.85732     -5313.7911    
     26100        1061   960            5              534.48245     -5330.584     
     26200        1061   960            5              500.26109     -5344.5812    
     26300        1061   960            5              454.08629     -5354.9747    
     26400        1061   960            5              412.22983     -5363.469     
     26500        1061   960            5              407.43668     -5370.8243    
     26600        1061   960            5              375.9165      -5376.1473    
     26700        1061   960            5              381.75857     -5381.0295    
     26800        1061   960            5              355.4667      -5385.2677    
     26900        1061   960            5              349.21568     -5388.5913    
     27000        1061   960            5              334.12618     -5391.4957    
     27100        1061   960            5              323.79915     -5393.6635    
     27200        1061   960            5              343.43975     -5395.4957    
     27300        1061   960            5              323.15735     -5397.2679    
     27400        1061   960            5              314.32907     -5398.5843    
     27500        1061   960            5              316.53579     -5399.5109    
     27600        1061   960            5              311.89423     -5400.7758    
     27700        1061   960            5              305.30037     -5401.6986    
     27800        1061   960            5              311.9872      -5402.2192    
     27900        1061   960            5              325.15831     -5402.9144    
     28000        1061   960            5              303.03374     -5403.7253    
Loop time of 374.879 on 1 procs for 2000 steps with 1061 atoms

Performance: 0.230 ns/day, 104.133 hours/ns, 5.335 timesteps/s, 5.660 katom-step/s
99.5% CPU use with 1 MPI tasks x 1 OpenMP threads

MPI task timing breakdown:
Section |  min time  |  avg time  |  max time  |%varavg| %total
---------------------------------------------------------------
Pair    | 374.25     | 374.25     | 374.25     |   0.0 | 99.83
Neigh   | 0.090421   | 0.090421   | 0.090421   |   0.0 |  0.02
Comm    | 0.30862    | 0.30862    | 0.30862    |   0.0 |  0.08
Output  | 0.017695   | 0.017695   | 0.017695   |   0.0 |  0.00
Modify  | 0.17629    | 0.17629    | 0.17629    |   0.0 |  0.05
Other   |            | 0.03547    |            |       |  0.01

Nlocal:           1061 ave        1061 max        1061 min
Histogram: 1 0 0 0 0 0 0 0 0 0
Nghost:           1877 ave        1877 max        1877 min
Histogram: 1 0 0 0 0 0 0 0 0 0
Neighs:              0 ave           0 max           0 min
Histogram: 1 0 0 0 0 0 0 0 0 0
FullNghs:        72360 ave       72360 max       72360 min
Histogram: 1 0 0 0 0 0 0 0 0 0

Total # of neighbors = 72360
Ave neighs/atom = 68.199811
Neighbor list builds = 400
Dangerous builds not checked

unfix           1coolB
unfix           2coolB

delete_atoms    region del
Deleted 0 atoms, new total = 1061

next		a
jump		in_cpu.lammps loop

variable    	c equal ${c}+1
variable    	c equal 7+1
variable    	deposeed equal floor(random(1,3245,${c}))
variable    	deposeed equal floor(random(1,3245,8))

fix		depo insert deposit 1 2 1000 ${deposeed} region insert vx 0.0 0.0 vy ${vely} ${vely} vz -${velz} -${velz} units box
fix		depo insert deposit 1 2 1000 659 region insert vx 0.0 0.0 vy ${vely} ${vely} vz -${velz} -${velz} units box
fix		depo insert deposit 1 2 1000 659 region insert vx 0.0 0.0 vy 0 ${vely} vz -${velz} -${velz} units box
fix		depo insert deposit 1 2 1000 659 region insert vx 0.0 0.0 vy 0 0 vz -${velz} -${velz} units box
fix		depo insert deposit 1 2 1000 659 region insert vx 0.0 0.0 vy 0 0 vz -219.776405126004 -${velz} units box
fix		depo insert deposit 1 2 1000 659 region insert vx 0.0 0.0 vy 0 0 vz -219.776405126004 -219.776405126004 units box

fix     	2 mobile nve
fix             3 insert nve

run		2000
Per MPI rank memory allocation (min/avg/max) = 160.3 | 160.3 | 160.3 Mbytes
   Step        Atoms      v_nmobile      v_ninject         Temp          TotEng    
     28000        1061   960            5              303.03374     -5403.7253    
     28100        1062   960            6              300.01811     -5392.5266    
     28200        1062   960            6              616.99513     -5337.4817    
     28300        1062   960            6              754.17658     -5324.9565    
     28400        1062   960            6              679.1217      -5315.0194    
     28500        1062   960            6              580.84163     -5312.2645    
     28600        1062   960            6              531.58963     -5311.1377    
     28700        1062   960            6              524.60372     -5311.6555    
     28800        1062   960            6              550.47948     -5308.0299    
     28900        1062   960            6              563.45869     -5307.7531    
     29000        1062   960            6              551.94533     -5307.3801    
     29100        1062   960            6              564.48519     -5307.3068    
     29200        1062   960            6              590.52321     -5306.4127    
     29300        1062   960            6              564.00341     -5305.1277    
     29400        1062   960            6              579.84134     -5305.1501    
     29500        1062   960            6              588.89168     -5305.192     
     29600        1062   960            6              598.41629     -5305.2563    
     29700        1062   960            6              602.99136     -5305.0906    
     29800        1062   960            6              585.11689     -5304.5366    
     29900        1062   960            6              579.08808     -5304.4983    
     30000        1062   960            6              571.32576     -5304.6867    
Loop time of 374.864 on 1 procs for 2000 steps with 1062 atoms

Performance: 0.230 ns/day, 104.129 hours/ns, 5.335 timesteps/s, 5.666 katom-step/s
99.5% CPU use with 1 MPI tasks x 1 OpenMP threads

MPI task timing breakdown:
Section |  min time  |  avg time  |  max time  |%varavg| %total
---------------------------------------------------------------
Pair    | 374        | 374        | 374        |   0.0 | 99.77
Neigh   | 0.089773   | 0.089773   | 0.089773   |   0.0 |  0.02
Comm    | 0.34765    | 0.34765    | 0.34765    |   0.0 |  0.09
Output  | 0.015977   | 0.015977   | 0.015977   |   0.0 |  0.00
Modify  | 0.2513     | 0.2513     | 0.2513     |   0.0 |  0.07
Other   |            | 0.1633     |            |       |  0.04

Nlocal:           1062 ave        1062 max        1062 min
Histogram: 1 0 0 0 0 0 0 0 0 0
Nghost:           1883 ave        1883 max        1883 min
Histogram: 1 0 0 0 0 0 0 0 0 0
Neighs:              0 ave           0 max           0 min
Histogram: 1 0 0 0 0 0 0 0 0 0
FullNghs:        72560 ave       72560 max       72560 min
Histogram: 1 0 0 0 0 0 0 0 0 0

Total # of neighbors = 72560
Ave neighs/atom = 68.323917
Neighbor list builds = 400
Dangerous builds not checked

unfix      	depo

fix        	1coolB mobile temp/berendsen 298.0 298.0 0.1
fix        	2coolB insert temp/berendsen 298.0 298.0 0.1

run		2000
Per MPI rank memory allocation (min/avg/max) = 160.4 | 160.4 | 160.4 Mbytes
   Step        Atoms      v_nmobile      v_ninject         Temp          TotEng    
     30000        1062   960            6              571.32576     -5304.6867    
     30100        1062   960            6              528.97121     -5320.571     
     30200        1062   960            6              480.56429     -5333.5309    
     30300        1062   960            6              460.00007     -5344.3553    
     30400        1062   960            6              438.32867     -5353.4164    
     30500        1062   960            6              422.62817     -5361.2956    
     30600        1062   960            6              388.53093     -5368.0667    
     30700        1062   960            6              384.14479     -5373.2385    
     30800        1062   960            6              360.15925     -5377.8995    
     30900        1062   960            6              342.92881     -5381.0967    
     31000        1062   960            6              341.04949     -5383.8438    
     31100        1062   960            6              330.10837     -5386.3202    
     31200        1062   960            6              330.18986     -5388.0131    
     31300        1062   960            6              323.93397     -5390.1065    
     31400        1062   960            6              319.31743     -5391.3094    
     31500        1062   960            6              327.69545     -5392.6057    
     31600        1062   960            6              314.60266     -5394.07      
     31700        1062   960            6              309.57764     -5394.8345    
     31800        1062   960            6              304.31323     -5395.3352    
     31900        1062   960            6              311.68082     -5395.8376    
     32000        1062   960            6              322.31096     -5397.1544    
Loop time of 374.519 on 1 procs for 2000 steps with 1062 atoms

Performance: 0.231 ns/day, 104.033 hours/ns, 5.340 timesteps/s, 5.671 katom-step/s
99.6% CPU use with 1 MPI tasks x 1 OpenMP threads

MPI task timing breakdown:
Section |  min time  |  avg time  |  max time  |%varavg| %total
---------------------------------------------------------------
Pair    | 373.9      | 373.9      | 373.9      |   0.0 | 99.84
Neigh   | 0.089519   | 0.089519   | 0.089519   |   0.0 |  0.02
Comm    | 0.29694    | 0.29694    | 0.29694    |   0.0 |  0.08
Output  | 0.027182   | 0.027182   | 0.027182   |   0.0 |  0.01
Modify  | 0.16921    | 0.16921    | 0.16921    |   0.0 |  0.05
Other   |            | 0.03162    |            |       |  0.01

Nlocal:           1062 ave        1062 max        1062 min
Histogram: 1 0 0 0 0 0 0 0 0 0
Nghost:           1899 ave        1899 max        1899 min
Histogram: 1 0 0 0 0 0 0 0 0 0
Neighs:              0 ave           0 max           0 min
Histogram: 1 0 0 0 0 0 0 0 0 0
FullNghs:        72808 ave       72808 max       72808 min
Histogram: 1 0 0 0 0 0 0 0 0 0

Total # of neighbors = 72808
Ave neighs/atom = 68.557439
Neighbor list builds = 400
Dangerous builds not checked

unfix           1coolB
unfix           2coolB

delete_atoms    region del
Deleted 0 atoms, new total = 1062

next		a
jump		in_cpu.lammps loop

variable    	c equal ${c}+1
variable    	c equal 8+1
variable    	deposeed equal floor(random(1,3245,${c}))
variable    	deposeed equal floor(random(1,3245,9))

fix		depo insert deposit 1 2 1000 ${deposeed} region insert vx 0.0 0.0 vy ${vely} ${vely} vz -${velz} -${velz} units box
fix		depo insert deposit 1 2 1000 1697 region insert vx 0.0 0.0 vy ${vely} ${vely} vz -${velz} -${velz} units box
fix		depo insert deposit 1 2 1000 1697 region insert vx 0.0 0.0 vy 0 ${vely} vz -${velz} -${velz} units box
fix		depo insert deposit 1 2 1000 1697 region insert vx 0.0 0.0 vy 0 0 vz -${velz} -${velz} units box
fix		depo insert deposit 1 2 1000 1697 region insert vx 0.0 0.0 vy 0 0 vz -219.776405126004 -${velz} units box
fix		depo insert deposit 1 2 1000 1697 region insert vx 0.0 0.0 vy 0 0 vz -219.776405126004 -219.776405126004 units box

fix     	2 mobile nve
fix             3 insert nve

run		2000
Per MPI rank memory allocation (min/avg/max) = 160.4 | 160.4 | 160.4 Mbytes
   Step        Atoms      v_nmobile      v_ninject         Temp          TotEng    
     32000        1062   960            6              322.31096     -5397.1544    
     32100        1063   960            7              342.37162     -5385.3364    
     32200        1063   960            7              738.03799     -5325.7275    
     32300        1063   960            7              712.68456     -5318.2203    
     32400        1063   960            7              596.99524     -5315.4328    
     32500        1063   960            7              541.18698     -5314.764     
     32600        1063   960            7              512.40132     -5314.6445    
     32700        1063   960            7              548.64378     -5314.2608    
     32800        1063   960            7              583.64944     -5311.1344    
     32900        1063   960            7              582.09275     -5308.9718    
     33000        1063   960            7              565.28291     -5308.8513    
     33100        1063   960            7              583.55205     -5308.2234    
     33200        1063   960            7              611.76618     -5306.7123    
     33300        1063   960            7              658.8831      -5300.5124    
     33400        1063   960            7              598.67354     -5299.5098    
     33500        1063   960            7              591.69497     -5299.3414    
     33600        1063   960            7              635.39192     -5298.1959    
     33700        1063   960            7              630.92335     -5297.3193    
     33800        1063   960            7              625.92527     -5297.5788    
     33900        1063   960            7              617.72421     -5297.6636    
     34000        1063   960            7              629.71871     -5297.6596    
Loop time of 375.568 on 1 procs for 2000 steps with 1063 atoms

Performance: 0.230 ns/day, 104.324 hours/ns, 5.325 timesteps/s, 5.661 katom-step/s
99.6% CPU use with 1 MPI tasks x 1 OpenMP threads

MPI task timing breakdown:
Section |  min time  |  avg time  |  max time  |%varavg| %total
---------------------------------------------------------------
Pair    | 374.71     | 374.71     | 374.71     |   0.0 | 99.77
Neigh   | 0.089681   | 0.089681   | 0.089681   |   0.0 |  0.02
Comm    | 0.34081    | 0.34081    | 0.34081    |   0.0 |  0.09
Output  | 0.018428   | 0.018428   | 0.018428   |   0.0 |  0.00
Modify  | 0.24811    | 0.24811    | 0.24811    |   0.0 |  0.07
Other   |            | 0.1616     |            |       |  0.04

Nlocal:           1063 ave        1063 max        1063 min
Histogram: 1 0 0 0 0 0 0 0 0 0
Nghost:           1884 ave        1884 max        1884 min
Histogram: 1 0 0 0 0 0 0 0 0 0
Neighs:              0 ave           0 max           0 min
Histogram: 1 0 0 0 0 0 0 0 0 0
FullNghs:        73354 ave       73354 max       73354 min
Histogram: 1 0 0 0 0 0 0 0 0 0

Total # of neighbors = 73354
Ave neighs/atom = 69.006585
Neighbor list builds = 400
Dangerous builds not checked

unfix      	depo

fix        	1coolB mobile temp/berendsen 298.0 298.0 0.1
fix        	2coolB insert temp/berendsen 298.0 298.0 0.1

run		2000
Per MPI rank memory allocation (min/avg/max) = 160.5 | 160.5 | 160.5 Mbytes
   Step        Atoms      v_nmobile      v_ninject         Temp          TotEng    
     34000        1063   960            7              629.71871     -5297.6596    
     34100        1063   960            7              536.29466     -5315.5578    
     34200        1063   960            7              503.43843     -5329.2177    
     34300        1063   960            7              461.9134      -5341.4071    
     34400        1063   960            7              419.68436     -5350.3579    
     34500        1063   960            7              414.21611     -5357.4653    
     34600        1063   960            7              376.66635     -5363.1684    
     34700        1063   960            7              377.44944     -5368.0117    
     34800        1063   960            7              354.72204     -5372.1921    
     34900        1063   960            7              344.55713     -5375.7448    
     35000        1063   960            7              342.79865     -5378.3758    
     35100        1063   960            7              331.45643     -5380.5854    
     35200        1063   960            7              334.43033     -5383.25      
     35300        1063   960            7              330.05098     -5385.4762    
     35400        1063   960            7              320.40671     -5387.3572    
     35500        1063   960            7              323.36203     -5389.0632    
     35600        1063   960            7              308.04463     -5390.0541    
     35700        1063   960            7              320.03956     -5391.0512    
     35800        1063   960            7              309.4136      -5392.0283    
     35900        1063   960            7              305.52748     -5392.8117    
     36000        1063   960            7              319.93109     -5393.7323    
Loop time of 377.181 on 1 procs for 2000 steps with 1063 atoms

Performance: 0.229 ns/day, 104.773 hours/ns, 5.302 timesteps/s, 5.637 katom-step/s
99.6% CPU use with 1 MPI tasks x 1 OpenMP threads

MPI task timing breakdown:
Section |  min time  |  avg time  |  max time  |%varavg| %total
---------------------------------------------------------------
Pair    | 376.56     | 376.56     | 376.56     |   0.0 | 99.83
Neigh   | 0.088821   | 0.088821   | 0.088821   |   0.0 |  0.02
Comm    | 0.29658    | 0.29658    | 0.29658    |   0.0 |  0.08
Output  | 0.039639   | 0.039639   | 0.039639   |   0.0 |  0.01
Modify  | 0.16926    | 0.16926    | 0.16926    |   0.0 |  0.04
Other   |            | 0.03166    |            |       |  0.01

Nlocal:           1063 ave        1063 max        1063 min
Histogram: 1 0 0 0 0 0 0 0 0 0
Nghost:           1914 ave        1914 max        1914 min
Histogram: 1 0 0 0 0 0 0 0 0 0
Neighs:              0 ave           0 max           0 min
Histogram: 1 0 0 0 0 0 0 0 0 0
FullNghs:        73572 ave       73572 max       73572 min
Histogram: 1 0 0 0 0 0 0 0 0 0

Total # of neighbors = 73572
Ave neighs/atom = 69.211665
Neighbor list builds = 400
Dangerous builds not checked

unfix           1coolB
unfix           2coolB

delete_atoms    region del
Deleted 0 atoms, new total = 1063

next		a
jump		in_cpu.lammps loop

variable    	c equal ${c}+1
variable    	c equal 9+1
variable    	deposeed equal floor(random(1,3245,${c}))
variable    	deposeed equal floor(random(1,3245,10))

fix		depo insert deposit 1 2 1000 ${deposeed} region insert vx 0.0 0.0 vy ${vely} ${vely} vz -${velz} -${velz} units box
fix		depo insert deposit 1 2 1000 2502 region insert vx 0.0 0.0 vy ${vely} ${vely} vz -${velz} -${velz} units box
fix		depo insert deposit 1 2 1000 2502 region insert vx 0.0 0.0 vy 0 ${vely} vz -${velz} -${velz} units box
fix		depo insert deposit 1 2 1000 2502 region insert vx 0.0 0.0 vy 0 0 vz -${velz} -${velz} units box
fix		depo insert deposit 1 2 1000 2502 region insert vx 0.0 0.0 vy 0 0 vz -219.776405126004 -${velz} units box
fix		depo insert deposit 1 2 1000 2502 region insert vx 0.0 0.0 vy 0 0 vz -219.776405126004 -219.776405126004 units box

fix     	2 mobile nve
fix             3 insert nve

run		2000
Per MPI rank memory allocation (min/avg/max) = 160.8 | 160.8 | 160.8 Mbytes
   Step        Atoms      v_nmobile      v_ninject         Temp          TotEng    
     36000        1063   960            7              319.93109     -5393.7323    
     36100        1064   960            8              312.79731     -5393.7617    
     36200        1064   960            8              413.42718     -5375.1369    
     36300        1064   960            8              724.5243      -5322.934     
     36400        1064   960            8              716.42721     -5305.9038    
     36500        1064   960            8              637.25289     -5300.7012    
     36600        1064   960            8              521.24495     -5301.4046    
     36700        1064   960            8              546.57963     -5301.2047    
     36800        1064   960            8              544.49463     -5300.1687    
     36900        1064   960            8              568.14415     -5297.8968    
     37000        1064   960            8              579.5764      -5297.3631    
     37100        1064   960            8              577.13366     -5296.7491    
     37200        1064   960            8              587.04169     -5296.2059    
     37300        1064   960            8              583.38728     -5296.3467    
     37400        1064   960            8              602.35934     -5296.4097    
     37500        1064   960            8              602.8448      -5296.1275    
     37600        1064   960            8              593.83542     -5295.8799    
     37700        1064   960            8              609.90167     -5295.3542    
     37800        1064   960            8              607.54112     -5295.3332    
     37900        1064   960            8              613.9357      -5295.4358    
     38000        1064   960            8              604.58032     -5295.4954    
Loop time of 375.647 on 1 procs for 2000 steps with 1064 atoms

Performance: 0.230 ns/day, 104.346 hours/ns, 5.324 timesteps/s, 5.665 katom-step/s
99.5% CPU use with 1 MPI tasks x 1 OpenMP threads

MPI task timing breakdown:
Section |  min time  |  avg time  |  max time  |%varavg| %total
---------------------------------------------------------------
Pair    | 374.81     | 374.81     | 374.81     |   0.0 | 99.78
Neigh   | 0.089928   | 0.089928   | 0.089928   |   0.0 |  0.02
Comm    | 0.33368    | 0.33368    | 0.33368    |   0.0 |  0.09
Output  | 0.01546    | 0.01546    | 0.01546    |   0.0 |  0.00
Modify  | 0.24301    | 0.24301    | 0.24301    |   0.0 |  0.06
Other   |            | 0.1597     |            |       |  0.04

Nlocal:           1064 ave        1064 max        1064 min
Histogram: 1 0 0 0 0 0 0 0 0 0
Nghost:           1881 ave        1881 max        1881 min
Histogram: 1 0 0 0 0 0 0 0 0 0
Neighs:              0 ave           0 max           0 min
Histogram: 1 0 0 0 0 0 0 0 0 0
FullNghs:        73458 ave       73458 max       73458 min
Histogram: 1 0 0 0 0 0 0 0 0 0

Total # of neighbors = 73458
Ave neighs/atom = 69.039474
Neighbor list builds = 400
Dangerous builds not checked

unfix      	depo

fix        	1coolB mobile temp/berendsen 298.0 298.0 0.1
fix        	2coolB insert temp/berendsen 298.0 298.0 0.1

run		2000
Per MPI rank memory allocation (min/avg/max) = 160.6 | 160.6 | 160.6 Mbytes
   Step        Atoms      v_nmobile      v_ninject         Temp          TotEng    
     38000        1064   960            8              604.58032     -5295.4954    
     38100        1064   960            8              527.72897     -5312.2905    
     38200        1064   960            8              483.16316     -5325.5608    
     38300        1064   960            8              459.97139     -5337.0208    
     38400        1064   960            8              435.3486      -5346.4136    
     38500        1064   960            8              402.61263     -5354.0098    
     38600        1064   960            8              376.57233     -5359.1593    
     38700        1064   960            8              377.96669     -5364.1426    
     38800        1064   960            8              352.60601     -5369.0254    
     38900        1063   960            7              340.78882     -5371.5187    
     39000        1063   960            7              330.42277     -5373.9827    
     39100        1063   960            7              330.9257      -5375.8173    
     39200        1063   960            7              329.5277      -5377.9594    
     39300        1063   960            7              320.12673     -5379.417     
     39400        1063   960            7              329.55131     -5381.449     
     39500        1063   960            7              317.85703     -5382.8791    
     39600        1063   960            7              319.05691     -5384.029     
     39700        1063   960            7              314.87906     -5385.2429    
     39800        1063   960            7              319.35836     -5386.3108    
     39900        1063   960            7              312.80878     -5387.0295    
     40000        1063   960            7              310.82872     -5387.6187    
Loop time of 376.159 on 1 procs for 2000 steps with 1063 atoms

Performance: 0.230 ns/day, 104.489 hours/ns, 5.317 timesteps/s, 5.652 katom-step/s
99.6% CPU use with 1 MPI tasks x 1 OpenMP threads

MPI task timing breakdown:
Section |  min time  |  avg time  |  max time  |%varavg| %total
---------------------------------------------------------------
Pair    | 375.55     | 375.55     | 375.55     |   0.0 | 99.84
Neigh   | 0.089584   | 0.089584   | 0.089584   |   0.0 |  0.02
Comm    | 0.29716    | 0.29716    | 0.29716    |   0.0 |  0.08
Output  | 0.019229   | 0.019229   | 0.019229   |   0.0 |  0.01
Modify  | 0.16946    | 0.16946    | 0.16946    |   0.0 |  0.05
Other   |            | 0.03173    |            |       |  0.01

Nlocal:           1063 ave        1063 max        1063 min
Histogram: 1 0 0 0 0 0 0 0 0 0
Nghost:           1900 ave        1900 max        1900 min
Histogram: 1 0 0 0 0 0 0 0 0 0
Neighs:              0 ave           0 max           0 min
Histogram: 1 0 0 0 0 0 0 0 0 0
FullNghs:        73428 ave       73428 max       73428 min
Histogram: 1 0 0 0 0 0 0 0 0 0

Total # of neighbors = 73428
Ave neighs/atom = 69.076199
Neighbor list builds = 400
Dangerous builds not checked

unfix           1coolB
unfix           2coolB

delete_atoms    region del
Deleted 0 atoms, new total = 1063

next		a
jump		in_cpu.lammps loop

variable    	c equal ${c}+1
variable    	c equal 10+1
variable    	deposeed equal floor(random(1,3245,${c}))
variable    	deposeed equal floor(random(1,3245,11))

fix		depo insert deposit 1 2 1000 ${deposeed} region insert vx 0.0 0.0 vy ${vely} ${vely} vz -${velz} -${velz} units box
fix		depo insert deposit 1 2 1000 870 region insert vx 0.0 0.0 vy ${vely} ${vely} vz -${velz} -${velz} units box
fix		depo insert deposit 1 2 1000 870 region insert vx 0.0 0.0 vy 0 ${vely} vz -${velz} -${velz} units box
fix		depo insert deposit 1 2 1000 870 region insert vx 0.0 0.0 vy 0 0 vz -${velz} -${velz} units box
fix		depo insert deposit 1 2 1000 870 region insert vx 0.0 0.0 vy 0 0 vz -219.776405126004 -${velz} units box
fix		depo insert deposit 1 2 1000 870 region insert vx 0.0 0.0 vy 0 0 vz -219.776405126004 -219.776405126004 units box

fix     	2 mobile nve
fix             3 insert nve

run		2000
Per MPI rank memory allocation (min/avg/max) = 160.7 | 160.7 | 160.7 Mbytes
   Step        Atoms      v_nmobile      v_ninject         Temp          TotEng    
     40000        1063   960            7              310.82872     -5387.6187    
     40100        1064   960            8              317.98008     -5387.5324    
     40200        1064   960            8              320.26789     -5386.8309    
     40300        1064   960            8              387.84164     -5374.2762    
     40400        1064   960            8              709.89626     -5313.4742    
     40500        1064   960            8              801.89377     -5294.0008    
     40600        1064   960            8              652.87445     -5291.7805    
     40700        1064   960            8              550.58872     -5291.4501    
     40800        1064   960            8              581.08102     -5291.5155    
     40900        1064   960            8              596.54648     -5291.5554    
     41000        1064   960            8              595.6422      -5291.1344    
     41100        1064   960            8              584.80463     -5291.6874    
     41200        1064   960            8              572.25542     -5291.5234    
     41300        1063   960            7              592.4105      -5292.1138    
     41400        1063   960            7              613.90188     -5292.2856    
     41500        1063   960            7              624.15802     -5291.916     
     41600        1063   960            7              612.9217      -5291.7805    
     41700        1063   960            7              630.43809     -5291.9043    
     41800        1063   960            7              651.97753     -5291.8827    
     41900        1063   960            7              642.02053     -5291.7125    
     42000        1063   960            7              646.34505     -5291.886     
Loop time of 375.283 on 1 procs for 2000 steps with 1063 atoms

Performance: 0.230 ns/day, 104.245 hours/ns, 5.329 timesteps/s, 5.665 katom-step/s
99.6% CPU use with 1 MPI tasks x 1 OpenMP threads

MPI task timing breakdown:
Section |  min time  |  avg time  |  max time  |%varavg| %total
---------------------------------------------------------------
Pair    | 374.43     | 374.43     | 374.43     |   0.0 | 99.77
Neigh   | 0.08893    | 0.08893    | 0.08893    |   0.0 |  0.02
Comm    | 0.34185    | 0.34185    | 0.34185    |   0.0 |  0.09
Output  | 0.015101   | 0.015101   | 0.015101   |   0.0 |  0.00
Modify  | 0.24827    | 0.24827    | 0.24827    |   0.0 |  0.07
Other   |            | 0.1622     |            |       |  0.04

Nlocal:           1063 ave        1063 max        1063 min
Histogram: 1 0 0 0 0 0 0 0 0 0
Nghost:           1877 ave        1877 max        1877 min
Histogram: 1 0 0 0 0 0 0 0 0 0
Neighs:              0 ave           0 max           0 min
Histogram: 1 0 0 0 0 0 0 0 0 0
FullNghs:        72316 ave       72316 max       72316 min
Histogram: 1 0 0 0 0 0 0 0 0 0

Total # of neighbors = 72316
Ave neighs/atom = 68.030103
Neighbor list builds = 400
Dangerous builds not checked

unfix      	depo

fix        	1coolB mobile temp/berendsen 298.0 298.0 0.1
fix        	2coolB insert temp/berendsen 298.0 298.0 0.1

run		2000
Per MPI rank memory allocation (min/avg/max) = 160.6 | 160.6 | 160.6 Mbytes
   Step        Atoms      v_nmobile      v_ninject         Temp          TotEng    
     42000        1063   960            7              646.34505     -5291.886     
     42100        1063   960            7              545.63478     -5309.3996    
     42200        1063   960            7              522.98754     -5324.1582    
     42300        1063   960            7              488.14425     -5336.7021    
     42400        1063   960            7              445.80741     -5347.4946    
     42500        1063   960            7              402.70502     -5355.1893    
     42600        1063   960            7              389.52992     -5361.8465    
     42700        1063   960            7              378.11392     -5367.0274    
     42800        1063   960            7              367.71259     -5371.34      
     42900        1063   960            7              351.88228     -5374.8667    
     43000        1063   960            7              334.98042     -5377.9829    
     43100        1063   960            7              318.81833     -5380.229     
     43200        1063   960            7              317.42135     -5382.0294    
     43300        1063   960            7              309.54072     -5383.3774    
     43400        1063   960            7              319.08135     -5384.512     
     43500        1063   960            7              312.1189      -5385.7844    
     43600        1063   960            7              315.6757      -5386.9274    
     43700        1063   960            7              304.37096     -5387.8752    
     43800        1063   960            7              310.69323     -5388.5536    
     43900        1063   960            7              316.29616     -5389.1679    
     44000        1063   960            7              314.03245     -5389.8423    
Loop time of 374.787 on 1 procs for 2000 steps with 1063 atoms

Performance: 0.231 ns/day, 104.108 hours/ns, 5.336 timesteps/s, 5.673 katom-step/s
99.6% CPU use with 1 MPI tasks x 1 OpenMP threads

MPI task timing breakdown:
Section |  min time  |  avg time  |  max time  |%varavg| %total
---------------------------------------------------------------
Pair    | 374.18     | 374.18     | 374.18     |   0.0 | 99.84
Neigh   | 0.089246   | 0.089246   | 0.089246   |   0.0 |  0.02
Comm    | 0.29255    | 0.29255    | 0.29255    |   0.0 |  0.08
Output  | 0.033645   | 0.033645   | 0.033645   |   0.0 |  0.01
Modify  | 0.16544    | 0.16544    | 0.16544    |   0.0 |  0.04
Other   |            | 0.03078    |            |       |  0.01

Nlocal:           1063 ave        1063 max        1063 min
Histogram: 1 0 0 0 0 0 0 0 0 0
Nghost:           1876 ave        1876 max        1876 min
Histogram: 1 0 0 0 0 0 0 0 0 0
Neighs:              0 ave           0 max           0 min
Histogram: 1 0 0 0 0 0 0 0 0 0
FullNghs:        72860 ave       72860 max       72860 min
Histogram: 1 0 0 0 0 0 0 0 0 0

Total # of neighbors = 72860
Ave neighs/atom = 68.541863
Neighbor list builds = 400
Dangerous builds not checked

unfix           1coolB
unfix           2coolB

delete_atoms    region del
Deleted 0 atoms, new total = 1063

next		a
jump		in_cpu.lammps loop

variable    	c equal ${c}+1
variable    	c equal 11+1
variable    	deposeed equal floor(random(1,3245,${c}))
variable    	deposeed equal floor(random(1,3245,12))

fix		depo insert deposit 1 2 1000 ${deposeed} region insert vx 0.0 0.0 vy ${vely} ${vely} vz -${velz} -${velz} units box
fix		depo insert deposit 1 2 1000 2086 region insert vx 0.0 0.0 vy ${vely} ${vely} vz -${velz} -${velz} units box
fix		depo insert deposit 1 2 1000 2086 region insert vx 0.0 0.0 vy 0 ${vely} vz -${velz} -${velz} units box
fix		depo insert deposit 1 2 1000 2086 region insert vx 0.0 0.0 vy 0 0 vz -${velz} -${velz} units box
fix		depo insert deposit 1 2 1000 2086 region insert vx 0.0 0.0 vy 0 0 vz -219.776405126004 -${velz} units box
fix		depo insert deposit 1 2 1000 2086 region insert vx 0.0 0.0 vy 0 0 vz -219.776405126004 -219.776405126004 units box

fix     	2 mobile nve
fix             3 insert nve

run		2000
Per MPI rank memory allocation (min/avg/max) = 160.5 | 160.5 | 160.5 Mbytes
   Step        Atoms      v_nmobile      v_ninject         Temp          TotEng    
     44000        1063   960            7              314.03245     -5389.8423    
     44100        1064   960            8              328.75086     -5388.3467    
     44200        1064   960            8              842.44807     -5304.9408    
     44300        1064   960            8              773.46251     -5302.9681    
     44400        1064   960            8              687.12231     -5292.614     
     44500        1064   960            8              574.70655     -5290.8796    
     44600        1064   960            8              558.06535     -5290.5327    
     44700        1064   960            8              546.14215     -5290.4321    
     44800        1064   960            8              555.24724     -5290.4579    
     44900        1064   960            8              568.68344     -5290.2186    
     45000        1064   960            8              582.74001     -5290.3986    
     45100        1064   960            8              606.228       -5290.5525    
     45200        1064   960            8              612.59279     -5290.5358    
     45300        1064   960            8              616.56132     -5290.2842    
     45400        1064   960            8              599.51902     -5290.2987    
     45500        1064   960            8              634.40441     -5290.337     
     45600        1064   960            8              625.20459     -5290.4898    
     45700        1064   960            8              598.65677     -5290.4317    
     45800        1064   960            8              614.10963     -5290.4757    
     45900        1064   960            8              601.41669     -5290.5059    
     46000        1064   960            8              608.81784     -5290.3956    
Loop time of 374.686 on 1 procs for 2000 steps with 1064 atoms

Performance: 0.231 ns/day, 104.080 hours/ns, 5.338 timesteps/s, 5.679 katom-step/s
99.6% CPU use with 1 MPI tasks x 1 OpenMP threads

MPI task timing breakdown:
Section |  min time  |  avg time  |  max time  |%varavg| %total
---------------------------------------------------------------
Pair    | 373.83     | 373.83     | 373.83     |   0.0 | 99.77
Neigh   | 0.089013   | 0.089013   | 0.089013   |   0.0 |  0.02
Comm    | 0.33199    | 0.33199    | 0.33199    |   0.0 |  0.09
Output  | 0.031749   | 0.031749   | 0.031749   |   0.0 |  0.01
Modify  | 0.24324    | 0.24324    | 0.24324    |   0.0 |  0.06
Other   |            | 0.1593     |            |       |  0.04

Nlocal:           1064 ave        1064 max        1064 min
Histogram: 1 0 0 0 0 0 0 0 0 0
Nghost:           1881 ave        1881 max        1881 min
Histogram: 1 0 0 0 0 0 0 0 0 0
Neighs:              0 ave           0 max           0 min
Histogram: 1 0 0 0 0 0 0 0 0 0
FullNghs:        73890 ave       73890 max       73890 min
Histogram: 1 0 0 0 0 0 0 0 0 0

Total # of neighbors = 73890
Ave neighs/atom = 69.445489
Neighbor list builds = 400
Dangerous builds not checked

unfix      	depo

fix        	1coolB mobile temp/berendsen 298.0 298.0 0.1
fix        	2coolB insert temp/berendsen 298.0 298.0 0.1

run		2000
Per MPI rank memory allocation (min/avg/max) = 160.6 | 160.6 | 160.6 Mbytes
   Step        Atoms      v_nmobile      v_ninject         Temp          TotEng    
     46000        1064   960            8              608.81784     -5290.3956    
     46100        1064   960            8              528.11346     -5306.8125    
     46200        1064   960            8              483.69592     -5320.2991    
     46300        1064   960            8              449.87219     -5330.8698    
     46400        1064   960            8              420.89779     -5339.3433    
     46500        1064   960            8              407.12922     -5346.4308    
     46600        1064   960            8              384.88049     -5352.6033    
     46700        1064   960            8              379.9247      -5358.1024    
     46800        1064   960            8              366.01744     -5362.3131    
     46900        1064   960            8              355.48217     -5365.8889    
     47000        1064   960            8              356.59974     -5369.3628    
     47100        1064   960            8              328.23597     -5372.1779    
     47200        1064   960            8              319.68087     -5374.3129    
     47300        1064   960            8              330.10505     -5376.5853    
     47400        1064   960            8              316.94342     -5378.7597    
     47500        1064   960            8              324.91023     -5380.5124    
     47600        1064   960            8              317.27687     -5382.0605    
     47700        1064   960            8              325.68256     -5383.5044    
     47800        1064   960            8              320.42309     -5385.1594    
     47900        1064   960            8              308.51688     -5386.2159    
     48000        1064   960            8              312.12835     -5387.0674    
Loop time of 376.798 on 1 procs for 2000 steps with 1064 atoms

Performance: 0.229 ns/day, 104.666 hours/ns, 5.308 timesteps/s, 5.648 katom-step/s
99.6% CPU use with 1 MPI tasks x 1 OpenMP threads

MPI task timing breakdown:
Section |  min time  |  avg time  |  max time  |%varavg| %total
---------------------------------------------------------------
Pair    | 376.17     | 376.17     | 376.17     |   0.0 | 99.83
Neigh   | 0.089268   | 0.089268   | 0.089268   |   0.0 |  0.02
Comm    | 0.29352    | 0.29352    | 0.29352    |   0.0 |  0.08
Output  | 0.049526   | 0.049526   | 0.049526   |   0.0 |  0.01
Modify  | 0.16527    | 0.16527    | 0.16527    |   0.0 |  0.04
Other   |            | 0.03079    |            |       |  0.01

Nlocal:           1064 ave        1064 max        1064 min
Histogram: 1 0 0 0 0 0 0 0 0 0
Nghost:           1911 ave        1911 max        1911 min
Histogram: 1 0 0 0 0 0 0 0 0 0
Neighs:              0 ave           0 max           0 min
Histogram: 1 0 0 0 0 0 0 0 0 0
FullNghs:        74154 ave       74154 max       74154 min
Histogram: 1 0 0 0 0 0 0 0 0 0

Total # of neighbors = 74154
Ave neighs/atom = 69.693609
Neighbor list builds = 400
Dangerous builds not checked

unfix           1coolB
unfix           2coolB

delete_atoms    region del
Deleted 0 atoms, new total = 1064

next		a
jump		in_cpu.lammps loop

variable    	c equal ${c}+1
variable    	c equal 12+1
variable    	deposeed equal floor(random(1,3245,${c}))
variable    	deposeed equal floor(random(1,3245,13))

fix		depo insert deposit 1 2 1000 ${deposeed} region insert vx 0.0 0.0 vy ${vely} ${vely} vz -${velz} -${velz} units box
fix		depo insert deposit 1 2 1000 2791 region insert vx 0.0 0.0 vy ${vely} ${vely} vz -${velz} -${velz} units box
fix		depo insert deposit 1 2 1000 2791 region insert vx 0.0 0.0 vy 0 ${vely} vz -${velz} -${velz} units box
fix		depo insert deposit 1 2 1000 2791 region insert vx 0.0 0.0 vy 0 0 vz -${velz} -${velz} units box
fix		depo insert deposit 1 2 1000 2791 region insert vx 0.0 0.0 vy 0 0 vz -219.776405126004 -${velz} units box
fix		depo insert deposit 1 2 1000 2791 region insert vx 0.0 0.0 vy 0 0 vz -219.776405126004 -219.776405126004 units box

fix     	2 mobile nve
fix             3 insert nve

run		2000
Per MPI rank memory allocation (min/avg/max) = 160.7 | 160.7 | 160.7 Mbytes
   Step        Atoms      v_nmobile      v_ninject         Temp          TotEng    
     48000        1064   960            8              312.12835     -5387.0674    
     48100        1065   960            9              319.68191     -5387.1504    
     48200        1065   960            9              318.35106     -5385.1656    
     48300        1065   960            9              784.45541     -5317.9757    
     48400        1065   960            9              827.04127     -5292.2472    
     48500        1065   960            9              682.1539      -5290.845     
     48600        1065   960            9              611.46582     -5290.4675    
     48700        1065   960            9              567.24456     -5289.4091    
     48800        1065   960            9              544.9518      -5288.5634    
     48900        1065   960            9              585.09315     -5287.3987    
     49000        1065   960            9              560.23314     -5287.5187    
     49100        1065   960            9              562.18475     -5287.6018    
     49200        1065   960            9              603.87967     -5287.6891    
     49300        1065   960            9              597.0275      -5287.6768    
     49400        1065   960            9              615.50105     -5287.559     
     49500        1065   960            9              592.69023     -5287.7306    
     49600        1065   960            9              601.80966     -5287.7995    
     49700        1065   960            9              624.52072     -5287.7038    
     49800        1065   960            9              627.93213     -5287.5144    
     49900        1065   960            9              601.75695     -5287.3601    
     50000        1065   960            9              606.17446     -5287.7158    
Loop time of 376.422 on 1 procs for 2000 steps with 1065 atoms

Performance: 0.230 ns/day, 104.562 hours/ns, 5.313 timesteps/s, 5.659 katom-step/s
99.6% CPU use with 1 MPI tasks x 1 OpenMP threads

MPI task timing breakdown:
Section |  min time  |  avg time  |  max time  |%varavg| %total
---------------------------------------------------------------
Pair    | 375.58     | 375.58     | 375.58     |   0.0 | 99.78
Neigh   | 0.089833   | 0.089833   | 0.089833   |   0.0 |  0.02
Comm    | 0.33576    | 0.33576    | 0.33576    |   0.0 |  0.09
Output  | 0.015654   | 0.015654   | 0.015654   |   0.0 |  0.00
Modify  | 0.24407    | 0.24407    | 0.24407    |   0.0 |  0.06
Other   |            | 0.1604     |            |       |  0.04

Nlocal:           1065 ave        1065 max        1065 min
Histogram: 1 0 0 0 0 0 0 0 0 0
Nghost:           1880 ave        1880 max        1880 min
Histogram: 1 0 0 0 0 0 0 0 0 0
Neighs:              0 ave           0 max           0 min
Histogram: 1 0 0 0 0 0 0 0 0 0
FullNghs:        73996 ave       73996 max       73996 min
Histogram: 1 0 0 0 0 0 0 0 0 0

Total # of neighbors = 73996
Ave neighs/atom = 69.479812
Neighbor list builds = 400
Dangerous builds not checked

unfix      	depo

fix        	1coolB mobile temp/berendsen 298.0 298.0 0.1
fix        	2coolB insert temp/berendsen 298.0 298.0 0.1

run		2000
Per MPI rank memory allocation (min/avg/max) = 160.8 | 160.8 | 160.8 Mbytes
   Step        Atoms      v_nmobile      v_ninject         Temp          TotEng    
     50000        1065   960            9              606.17446     -5287.7158    
     50100        1065   960            9              538.38608     -5304.5582    
     50200        1065   960            9              508.9436      -5317.9831    
     50300        1065   960            9              461.66269     -5329.2078    
     50400        1065   960            9              416.83324     -5338.1315    
     50500        1065   960            9              413.13966     -5345.426     
     50600        1065   960            9              393.48524     -5352.0602    
     50700        1065   960            9              377.87809     -5357.2619    
     50800        1065   960            9              370.91371     -5361.9909    
     50900        1065   960            9              359.52611     -5365.7832    
     51000        1065   960            9              348.55208     -5368.9767    
     51100        1065   960            9              321.81125     -5371.3916    
     51200        1065   960            9              338.71955     -5373.4258    
     51300        1065   960            9              318.13111     -5375.5514    
     51400        1065   960            9              313.24485     -5376.7385    
     51500        1065   960            9              307.0113      -5377.786     
     51600        1065   960            9              311.25607     -5378.7712    
     51700        1065   960            9              303.64028     -5379.4948    
     51800        1065   960            9              303.82958     -5379.6731    
     51900        1065   960            9              312.94576     -5380.0333    
     52000        1065   960            9              315.09484     -5381.1569    
Loop time of 376.974 on 1 procs for 2000 steps with 1065 atoms

Performance: 0.229 ns/day, 104.715 hours/ns, 5.305 timesteps/s, 5.650 katom-step/s
99.6% CPU use with 1 MPI tasks x 1 OpenMP threads

MPI task timing breakdown:
Section |  min time  |  avg time  |  max time  |%varavg| %total
---------------------------------------------------------------
Pair    | 376.35     | 376.35     | 376.35     |   0.0 | 99.84
Neigh   | 0.089441   | 0.089441   | 0.089441   |   0.0 |  0.02
Comm    | 0.29565    | 0.29565    | 0.29565    |   0.0 |  0.08
Output  | 0.036519   | 0.036519   | 0.036519   |   0.0 |  0.01
Modify  | 0.16843    | 0.16843    | 0.16843    |   0.0 |  0.04
Other   |            | 0.03137    |            |       |  0.01

Nlocal:           1065 ave        1065 max        1065 min
Histogram: 1 0 0 0 0 0 0 0 0 0
Nghost:           1904 ave        1904 max        1904 min
Histogram: 1 0 0 0 0 0 0 0 0 0
Neighs:              0 ave           0 max           0 min
Histogram: 1 0 0 0 0 0 0 0 0 0
FullNghs:        74160 ave       74160 max       74160 min
Histogram: 1 0 0 0 0 0 0 0 0 0

Total # of neighbors = 74160
Ave neighs/atom = 69.633803
Neighbor list builds = 400
Dangerous builds not checked

unfix           1coolB
unfix           2coolB

delete_atoms    region del
Deleted 0 atoms, new total = 1065

next		a
jump		in_cpu.lammps loop

variable    	c equal ${c}+1
variable    	c equal 13+1
variable    	deposeed equal floor(random(1,3245,${c}))
variable    	deposeed equal floor(random(1,3245,14))

fix		depo insert deposit 1 2 1000 ${deposeed} region insert vx 0.0 0.0 vy ${vely} ${vely} vz -${velz} -${velz} units box
fix		depo insert deposit 1 2 1000 1553 region insert vx 0.0 0.0 vy ${vely} ${vely} vz -${velz} -${velz} units box
fix		depo insert deposit 1 2 1000 1553 region insert vx 0.0 0.0 vy 0 ${vely} vz -${velz} -${velz} units box
fix		depo insert deposit 1 2 1000 1553 region insert vx 0.0 0.0 vy 0 0 vz -${velz} -${velz} units box
fix		depo insert deposit 1 2 1000 1553 region insert vx 0.0 0.0 vy 0 0 vz -219.776405126004 -${velz} units box
fix		depo insert deposit 1 2 1000 1553 region insert vx 0.0 0.0 vy 0 0 vz -219.776405126004 -219.776405126004 units box

fix     	2 mobile nve
fix             3 insert nve

run		2000
Per MPI rank memory allocation (min/avg/max) = 160.8 | 160.8 | 160.8 Mbytes
   Step        Atoms      v_nmobile      v_ninject         Temp          TotEng    
     52000        1065   960            9              315.09484     -5381.1569    
     52100        1066   960            10             302.92225     -5378.5467    
     52200        1066   960            10             536.4489      -5331.3181    
     52300        1066   960            10             576.78859     -5328.1416    
     52400        1066   960            10             533.94909     -5327.3518    
     52500        1066   960            10             549.78699     -5303.1781    
     52600        1066   960            10             689.32428     -5286.7654    
     52700        1066   960            10             633.13608     -5286.6611    
     52800        1066   960            10             640.34973     -5285.1767    
     52900        1066   960            10             646.5282      -5285.1987    
     53000        1066   960            10             651.01423     -5283.3533    
     53100        1066   960            10             613.74252     -5283.3804    
     53200        1066   960            10             625.37955     -5283.4423    
     53300        1066   960            10             605.99633     -5283.3292    
     53400        1066   960            10             604.74297     -5281.9756    
     53500        1066   960            10             571.22216     -5281.9141    
     53600        1066   960            10             599.8184      -5282.1779    
     53700        1066   960            10             593.7359      -5282.4538    
     53800        1066   960            10             630.12549     -5282.272     
     53900        1066   960            10             642.01274     -5281.9604    
     54000        1066   960            10             606.63437     -5281.8555    
Loop time of 376.249 on 1 procs for 2000 steps with 1066 atoms

Performance: 0.230 ns/day, 104.514 hours/ns, 5.316 timesteps/s, 5.666 katom-step/s
99.6% CPU use with 1 MPI tasks x 1 OpenMP threads

MPI task timing breakdown:
Section |  min time  |  avg time  |  max time  |%varavg| %total
---------------------------------------------------------------
Pair    | 375.42     | 375.42     | 375.42     |   0.0 | 99.78
Neigh   | 0.089346   | 0.089346   | 0.089346   |   0.0 |  0.02
Comm    | 0.32845    | 0.32845    | 0.32845    |   0.0 |  0.09
Output  | 0.015236   | 0.015236   | 0.015236   |   0.0 |  0.00
Modify  | 0.23989    | 0.23989    | 0.23989    |   0.0 |  0.06
Other   |            | 0.1576     |            |       |  0.04

Nlocal:           1066 ave        1066 max        1066 min
Histogram: 1 0 0 0 0 0 0 0 0 0
Nghost:           1890 ave        1890 max        1890 min
Histogram: 1 0 0 0 0 0 0 0 0 0
Neighs:              0 ave           0 max           0 min
Histogram: 1 0 0 0 0 0 0 0 0 0
FullNghs:        73882 ave       73882 max       73882 min
Histogram: 1 0 0 0 0 0 0 0 0 0

Total # of neighbors = 73882
Ave neighs/atom = 69.307692
Neighbor list builds = 400
Dangerous builds not checked

unfix      	depo

fix        	1coolB mobile temp/berendsen 298.0 298.0 0.1
fix        	2coolB insert temp/berendsen 298.0 298.0 0.1

run		2000
Per MPI rank memory allocation (min/avg/max) = 160.9 | 160.9 | 160.9 Mbytes
   Step        Atoms      v_nmobile      v_ninject         Temp          TotEng    
     54000        1066   960            10             606.63437     -5281.8555    
     54100        1066   960            10             529.64991     -5298.2817    
     54200        1066   960            10             491.98064     -5312.5549    
     54300        1066   960            10             449.40487     -5323.4041    
     54400        1066   960            10             446.93725     -5333.0661    
     54500        1066   960            10             418.35653     -5341.5797    
     54600        1066   960            10             394.10487     -5348.2065    
     54700        1066   960            10             353.65588     -5353.2773    
     54800        1066   960            10             346.44084     -5356.6765    
     54900        1066   960            10             353.85323     -5359.9372    
     55000        1066   960            10             334.90767     -5362.8793    
     55100        1066   960            10             335.44828     -5364.8889    
     55200        1066   960            10             337.05967     -5367.0985    
     55300        1066   960            10             323.14535     -5368.7793    
     55400        1066   960            10             317.8173      -5370.1811    
     55500        1066   960            10             329.72974     -5371.9374    
     55600        1066   960            10             325.29613     -5373.4392    
     55700        1066   960            10             297.14097     -5374.525     
     55800        1066   960            10             306.20537     -5374.8905    
     55900        1066   960            10             309.3964      -5375.9827    
     56000        1066   960            10             306.09054     -5376.6119    
Loop time of 376.239 on 1 procs for 2000 steps with 1066 atoms

Performance: 0.230 ns/day, 104.511 hours/ns, 5.316 timesteps/s, 5.667 katom-step/s
99.6% CPU use with 1 MPI tasks x 1 OpenMP threads

MPI task timing breakdown:
Section |  min time  |  avg time  |  max time  |%varavg| %total
---------------------------------------------------------------
Pair    | 375.61     | 375.61     | 375.61     |   0.0 | 99.83
Neigh   | 0.088203   | 0.088203   | 0.088203   |   0.0 |  0.02
Comm    | 0.28126    | 0.28126    | 0.28126    |   0.0 |  0.07
Output  | 0.080311   | 0.080311   | 0.080311   |   0.0 |  0.02
Modify  | 0.1543     | 0.1543     | 0.1543     |   0.0 |  0.04
Other   |            | 0.0276     |            |       |  0.01

Nlocal:           1066 ave        1066 max        1066 min
Histogram: 1 0 0 0 0 0 0 0 0 0
Nghost:           1919 ave        1919 max        1919 min
Histogram: 1 0 0 0 0 0 0 0 0 0
Neighs:              0 ave           0 max           0 min
Histogram: 1 0 0 0 0 0 0 0 0 0
FullNghs:        73974 ave       73974 max       73974 min
Histogram: 1 0 0 0 0 0 0 0 0 0

Total # of neighbors = 73974
Ave neighs/atom = 69.393996
Neighbor list builds = 400
Dangerous builds not checked

unfix           1coolB
unfix           2coolB

delete_atoms    region del
Deleted 0 atoms, new total = 1066

next		a
jump		in_cpu.lammps loop

variable    	c equal ${c}+1
variable    	c equal 14+1
variable    	deposeed equal floor(random(1,3245,${c}))
variable    	deposeed equal floor(random(1,3245,15))

fix		depo insert deposit 1 2 1000 ${deposeed} region insert vx 0.0 0.0 vy ${vely} ${vely} vz -${velz} -${velz} units box
fix		depo insert deposit 1 2 1000 3210 region insert vx 0.0 0.0 vy ${vely} ${vely} vz -${velz} -${velz} units box
fix		depo insert deposit 1 2 1000 3210 region insert vx 0.0 0.0 vy 0 ${vely} vz -${velz} -${velz} units box
fix		depo insert deposit 1 2 1000 3210 region insert vx 0.0 0.0 vy 0 0 vz -${velz} -${velz} units box
fix		depo insert deposit 1 2 1000 3210 region insert vx 0.0 0.0 vy 0 0 vz -219.776405126004 -${velz} units box
fix		depo insert deposit 1 2 1000 3210 region insert vx 0.0 0.0 vy 0 0 vz -219.776405126004 -219.776405126004 units box

fix     	2 mobile nve
fix             3 insert nve

run		2000
Per MPI rank memory allocation (min/avg/max) = 160.9 | 160.9 | 160.9 Mbytes
   Step        Atoms      v_nmobile      v_ninject         Temp          TotEng    
     56000        1066   960            10             306.09054     -5376.6119    
     56100        1067   960            11             320.06686     -5376.4958    
     56200        1067   960            11             356.87975     -5369.9786    
     56300        1067   960            11             378.56762     -5363.3314    
     56400        1067   960            11             364.98137     -5358.6595    
     56500        1067   960            11             407.71048     -5350.9876    
     56600        1067   960            11             400.49568     -5351.6257    
     56700        1066   960            10             392.85422     -5351.459     
     56800        1066   960            10             403.74581     -5351.4249    
     56900        1066   960            10             410.13839     -5351.4845    
     57000        1066   960            10             398.91223     -5351.5406    
     57100        1066   960            10             405.89927     -5351.5189    
     57200        1066   960            10             408.60308     -5351.6942    
     57300        1066   960            10             408.62708     -5351.6617    
     57400        1066   960            10             409.01125     -5351.6016    
     57500        1066   960            10             411.83773     -5351.624     
     57600        1066   960            10             397.14925     -5351.614     
     57700        1066   960            10             403.89685     -5351.5534    
     57800        1066   960            10             410.31112     -5351.5557    
     57900        1066   960            10             398.50007     -5351.5927    
     58000        1066   960            10             408.98752     -5351.6631    
Loop time of 375.779 on 1 procs for 2000 steps with 1066 atoms

Performance: 0.230 ns/day, 104.383 hours/ns, 5.322 timesteps/s, 5.674 katom-step/s
99.6% CPU use with 1 MPI tasks x 1 OpenMP threads

MPI task timing breakdown:
Section |  min time  |  avg time  |  max time  |%varavg| %total
---------------------------------------------------------------
Pair    | 374.96     | 374.96     | 374.96     |   0.0 | 99.78
Neigh   | 0.088916   | 0.088916   | 0.088916   |   0.0 |  0.02
Comm    | 0.32216    | 0.32216    | 0.32216    |   0.0 |  0.09
Output  | 0.015201   | 0.015201   | 0.015201   |   0.0 |  0.00
Modify  | 0.23564    | 0.23564    | 0.23564    |   0.0 |  0.06
Other   |            | 0.1553     |            |       |  0.04

Nlocal:           1066 ave        1066 max        1066 min
Histogram: 1 0 0 0 0 0 0 0 0 0
Nghost:           1887 ave        1887 max        1887 min
Histogram: 1 0 0 0 0 0 0 0 0 0
Neighs:              0 ave           0 max           0 min
Histogram: 1 0 0 0 0 0 0 0 0 0
FullNghs:        73050 ave       73050 max       73050 min
Histogram: 1 0 0 0 0 0 0 0 0 0

Total # of neighbors = 73050
Ave neighs/atom = 68.527205
Neighbor list builds = 400
Dangerous builds not checked

unfix      	depo

fix        	1coolB mobile temp/berendsen 298.0 298.0 0.1
fix        	2coolB insert temp/berendsen 298.0 298.0 0.1

run		2000
Per MPI rank memory allocation (min/avg/max) = 161 | 161 | 161 Mbytes
   Step        Atoms      v_nmobile      v_ninject         Temp          TotEng    
     58000        1066   960            10             408.98752     -5351.6631    
     58100        1066   960            10             391.95626     -5357.9461    
     58200        1066   960            10             365.31981     -5362.8981    
     58300        1066   960            10             361.11858     -5366.8828    
     58400        1066   960            10             354.5482      -5370.1488    
     58500        1066   960            10             327.89088     -5372.8256    
     58600        1066   960            10             322.49452     -5374.5976    
     58700        1066   960            10             322.48087     -5375.993     
     58800        1066   960            10             317.37231     -5377.505     
     58900        1066   960            10             314.19004     -5378.6212    
     59000        1066   960            10             308.59695     -5379.6122    
     59100        1066   960            10             305.88897     -5380.7086    
     59200        1066   960            10             303.94171     -5381.4032    
     59300        1066   960            10             317.41624     -5381.9536    
     59400        1066   960            10             318.62609     -5383.0212    
     59500        1066   960            10             315.30033     -5384.1816    
     59600        1066   960            10             315.61699     -5384.9849    
     59700        1066   960            10             299.18927     -5385.0878    
     59800        1066   960            10             301.95886     -5385.5168    
     59900        1066   960            10             310.44678     -5386.0825    
     60000        1066   960            10             317.47109     -5386.7264    
Loop time of 374.97 on 1 procs for 2000 steps with 1066 atoms

Performance: 0.230 ns/day, 104.158 hours/ns, 5.334 timesteps/s, 5.686 katom-step/s
99.6% CPU use with 1 MPI tasks x 1 OpenMP threads

MPI task timing breakdown:
Section |  min time  |  avg time  |  max time  |%varavg| %total
---------------------------------------------------------------
Pair    | 374.38     | 374.38     | 374.38     |   0.0 | 99.84
Neigh   | 0.088043   | 0.088043   | 0.088043   |   0.0 |  0.02
Comm    | 0.27955    | 0.27955    | 0.27955    |   0.0 |  0.07
Output  | 0.03866    | 0.03866    | 0.03866    |   0.0 |  0.01
Modify  | 0.15333    | 0.15333    | 0.15333    |   0.0 |  0.04
Other   |            | 0.02727    |            |       |  0.01

Nlocal:           1066 ave        1066 max        1066 min
Histogram: 1 0 0 0 0 0 0 0 0 0
Nghost:           1899 ave        1899 max        1899 min
Histogram: 1 0 0 0 0 0 0 0 0 0
Neighs:              0 ave           0 max           0 min
Histogram: 1 0 0 0 0 0 0 0 0 0
FullNghs:        72910 ave       72910 max       72910 min
Histogram: 1 0 0 0 0 0 0 0 0 0

Total # of neighbors = 72910
Ave neighs/atom = 68.395872
Neighbor list builds = 400
Dangerous builds not checked

unfix           1coolB
unfix           2coolB

delete_atoms    region del
Deleted 0 atoms, new total = 1066

next		a
jump		in_cpu.lammps loop

variable    	c equal ${c}+1
variable    	c equal 15+1
variable    	deposeed equal floor(random(1,3245,${c}))
variable    	deposeed equal floor(random(1,3245,16))

fix		depo insert deposit 1 2 1000 ${deposeed} region insert vx 0.0 0.0 vy ${vely} ${vely} vz -${velz} -${velz} units box
fix		depo insert deposit 1 2 1000 3141 region insert vx 0.0 0.0 vy ${vely} ${vely} vz -${velz} -${velz} units box
fix		depo insert deposit 1 2 1000 3141 region insert vx 0.0 0.0 vy 0 ${vely} vz -${velz} -${velz} units box
fix		depo insert deposit 1 2 1000 3141 region insert vx 0.0 0.0 vy 0 0 vz -${velz} -${velz} units box
fix		depo insert deposit 1 2 1000 3141 region insert vx 0.0 0.0 vy 0 0 vz -219.776405126004 -${velz} units box
fix		depo insert deposit 1 2 1000 3141 region insert vx 0.0 0.0 vy 0 0 vz -219.776405126004 -219.776405126004 units box

fix     	2 mobile nve
fix             3 insert nve

run		2000
Per MPI rank memory allocation (min/avg/max) = 161.1 | 161.1 | 161.1 Mbytes
   Step        Atoms      v_nmobile      v_ninject         Temp          TotEng    
     60000        1066   960            10             317.47109     -5386.7264    
     60100        1067   960            11             307.27774     -5385.5844    
     60200        1067   960            11             492.03243     -5340.8835    
     60300        1067   960            11             673.89278     -5314.0542    
     60400        1067   960            11             712.03933     -5295.7757    
     60500        1067   960            11             607.16972     -5292.7217    
     60600        1067   960            11             582.59155     -5292.6463    
     60700        1067   960            11             580.08066     -5288.1458    
     60800        1067   960            11             546.91889     -5288.5178    
     60900        1067   960            11             551.48669     -5288.3848    
     61000        1067   960            11             575.42899     -5288.2391    
     61100        1067   960            11             606.97348     -5288.2435    
     61200        1067   960            11             599.46911     -5287.2228    
     61300        1067   960            11             602.00813     -5287.0841    
     61400        1067   960            11             587.89066     -5287.3564    
     61500        1067   960            11             555.84632     -5287.3896    
     61600        1067   960            11             585.07217     -5287.0646    
     61700        1067   960            11             590.58939     -5287.0053    
     61800        1067   960            11             582.6051      -5287.2017    
     61900        1067   960            11             583.71711     -5287.2968    
     62000        1067   960            11             581.39769     -5287.3821    
Loop time of 376.644 on 1 procs for 2000 steps with 1067 atoms

Performance: 0.229 ns/day, 104.623 hours/ns, 5.310 timesteps/s, 5.666 katom-step/s
99.6% CPU use with 1 MPI tasks x 1 OpenMP threads

MPI task timing breakdown:
Section |  min time  |  avg time  |  max time  |%varavg| %total
---------------------------------------------------------------
Pair    | 375.83     | 375.83     | 375.83     |   0.0 | 99.78
Neigh   | 0.088452   | 0.088452   | 0.088452   |   0.0 |  0.02
Comm    | 0.32244    | 0.32244    | 0.32244    |   0.0 |  0.09
Output  | 0.015404   | 0.015404   | 0.015404   |   0.0 |  0.00
Modify  | 0.23598    | 0.23598    | 0.23598    |   0.0 |  0.06
Other   |            | 0.1554     |            |       |  0.04

Nlocal:           1067 ave        1067 max        1067 min
Histogram: 1 0 0 0 0 0 0 0 0 0
Nghost:           1901 ave        1901 max        1901 min
Histogram: 1 0 0 0 0 0 0 0 0 0
Neighs:              0 ave           0 max           0 min
Histogram: 1 0 0 0 0 0 0 0 0 0
FullNghs:        75180 ave       75180 max       75180 min
Histogram: 1 0 0 0 0 0 0 0 0 0

Total # of neighbors = 75180
Ave neighs/atom = 70.459231
Neighbor list builds = 400
Dangerous builds not checked

unfix      	depo

fix        	1coolB mobile temp/berendsen 298.0 298.0 0.1
fix        	2coolB insert temp/berendsen 298.0 298.0 0.1

run		2000
Per MPI rank memory allocation (min/avg/max) = 161.7 | 161.7 | 161.7 Mbytes
   Step        Atoms      v_nmobile      v_ninject         Temp          TotEng    
     62000        1067   960            11             581.39769     -5287.3821    
     62100        1067   960            11             503.52416     -5302.3976    
     62200        1067   960            11             470.5259      -5313.9656    
     62300        1067   960            11             452.22596     -5323.9289    
     62400        1067   960            11             418.7747      -5332.2742    
     62500        1067   960            11             388.65917     -5339.0748    
     62600        1067   960            11             344.83321     -5343.806     
     62700        1067   960            11             362.681       -5347.8929    
     62800        1067   960            11             347.67572     -5352.2254    
     62900        1067   960            11             348.73928     -5355.6894    
     63000        1067   960            11             337.62734     -5358.4616    
     63100        1067   960            11             320.43175     -5360.5925    
     63200        1067   960            11             326.94809     -5362.3678    
     63300        1067   960            11             329.07861     -5364.1955    
     63400        1067   960            11             314.46067     -5365.6822    
     63500        1067   960            11             323.60213     -5366.7079    
     63600        1067   960            11             310.86604     -5368.1322    
     63700        1067   960            11             294.33596     -5368.789     
     63800        1067   960            11             305.06828     -5369.1868    
     63900        1067   960            11             313.20106     -5369.7047    
     64000        1067   960            11             315.37901     -5370.5315    
Loop time of 378.899 on 1 procs for 2000 steps with 1067 atoms

Performance: 0.228 ns/day, 105.250 hours/ns, 5.278 timesteps/s, 5.632 katom-step/s
99.6% CPU use with 1 MPI tasks x 1 OpenMP threads

MPI task timing breakdown:
Section |  min time  |  avg time  |  max time  |%varavg| %total
---------------------------------------------------------------
Pair    | 378.33     | 378.33     | 378.33     |   0.0 | 99.85
Neigh   | 0.089189   | 0.089189   | 0.089189   |   0.0 |  0.02
Comm    | 0.28169    | 0.28169    | 0.28169    |   0.0 |  0.07
Output  | 0.018071   | 0.018071   | 0.018071   |   0.0 |  0.00
Modify  | 0.15483    | 0.15483    | 0.15483    |   0.0 |  0.04
Other   |            | 0.02772    |            |       |  0.01

Nlocal:           1067 ave        1067 max        1067 min
Histogram: 1 0 0 0 0 0 0 0 0 0
Nghost:           1916 ave        1916 max        1916 min
Histogram: 1 0 0 0 0 0 0 0 0 0
Neighs:              0 ave           0 max           0 min
Histogram: 1 0 0 0 0 0 0 0 0 0
FullNghs:        74900 ave       74900 max       74900 min
Histogram: 1 0 0 0 0 0 0 0 0 0

Total # of neighbors = 74900
Ave neighs/atom = 70.196813
Neighbor list builds = 400
Dangerous builds not checked

unfix           1coolB
unfix           2coolB

delete_atoms    region del
Deleted 0 atoms, new total = 1067

next		a
jump		in_cpu.lammps loop

variable    	c equal ${c}+1
variable    	c equal 16+1
variable    	deposeed equal floor(random(1,3245,${c}))
variable    	deposeed equal floor(random(1,3245,17))

fix		depo insert deposit 1 2 1000 ${deposeed} region insert vx 0.0 0.0 vy ${vely} ${vely} vz -${velz} -${velz} units box
fix		depo insert deposit 1 2 1000 481 region insert vx 0.0 0.0 vy ${vely} ${vely} vz -${velz} -${velz} units box
fix		depo insert deposit 1 2 1000 481 region insert vx 0.0 0.0 vy 0 ${vely} vz -${velz} -${velz} units box
fix		depo insert deposit 1 2 1000 481 region insert vx 0.0 0.0 vy 0 0 vz -${velz} -${velz} units box
fix		depo insert deposit 1 2 1000 481 region insert vx 0.0 0.0 vy 0 0 vz -219.776405126004 -${velz} units box
fix		depo insert deposit 1 2 1000 481 region insert vx 0.0 0.0 vy 0 0 vz -219.776405126004 -219.776405126004 units box

fix     	2 mobile nve
fix             3 insert nve

run		2000
Per MPI rank memory allocation (min/avg/max) = 162.2 | 162.2 | 162.2 Mbytes
   Step        Atoms      v_nmobile      v_ninject         Temp          TotEng    
     64000        1067   960            11             315.37901     -5370.5315    
     64100        1068   960            12             318.91676     -5370.5245    
     64200        1068   960            12             334.15232     -5368.7678    
     64300        1068   960            12             776.34136     -5306.6547    
     64400        1068   960            12             758.70493     -5285.4537    
     64500        1068   960            12             666.11909     -5279.7761    
     64600        1068   960            12             572.2858      -5276.4141    
     64700        1068   960            12             569.78095     -5273.3532    
     64800        1068   960            12             542.01797     -5273.3065    
     64900        1068   960            12             547.83376     -5273.3835    
     65000        1068   960            12             595.01323     -5273.3428    
     65100        1068   960            12             628.37378     -5273.4443    
     65200        1068   960            12             602.29347     -5272.3729    
     65300        1068   960            12             591.95837     -5272.4207    
     65400        1068   960            12             581.19033     -5272.3043    
     65500        1068   960            12             586.74606     -5272.2487    
     65600        1068   960            12             615.07154     -5272.2721    
     65700        1068   960            12             615.21429     -5271.4336    
     65800        1068   960            12             596.50083     -5271.5392    
     65900        1068   960            12             614.42657     -5271.5895    
     66000        1068   960            12             624.91084     -5271.4371    
Loop time of 375.923 on 1 procs for 2000 steps with 1068 atoms

Performance: 0.230 ns/day, 104.423 hours/ns, 5.320 timesteps/s, 5.682 katom-step/s
99.6% CPU use with 1 MPI tasks x 1 OpenMP threads

MPI task timing breakdown:
Section |  min time  |  avg time  |  max time  |%varavg| %total
---------------------------------------------------------------
Pair    | 375.09     | 375.09     | 375.09     |   0.0 | 99.78
Neigh   | 0.088919   | 0.088919   | 0.088919   |   0.0 |  0.02
Comm    | 0.32205    | 0.32205    | 0.32205    |   0.0 |  0.09
Output  | 0.028698   | 0.028698   | 0.028698   |   0.0 |  0.01
Modify  | 0.23527    | 0.23527    | 0.23527    |   0.0 |  0.06
Other   |            | 0.1555     |            |       |  0.04

Nlocal:           1068 ave        1068 max        1068 min
Histogram: 1 0 0 0 0 0 0 0 0 0
Nghost:           1894 ave        1894 max        1894 min
Histogram: 1 0 0 0 0 0 0 0 0 0
Neighs:              0 ave           0 max           0 min
Histogram: 1 0 0 0 0 0 0 0 0 0
FullNghs:        73300 ave       73300 max       73300 min
Histogram: 1 0 0 0 0 0 0 0 0 0

Total # of neighbors = 73300
Ave neighs/atom = 68.632959
Neighbor list builds = 400
Dangerous builds not checked

unfix      	depo

fix        	1coolB mobile temp/berendsen 298.0 298.0 0.1
fix        	2coolB insert temp/berendsen 298.0 298.0 0.1

run		2000
Per MPI rank memory allocation (min/avg/max) = 162.3 | 162.3 | 162.3 Mbytes
   Step        Atoms      v_nmobile      v_ninject         Temp          TotEng    
     66000        1068   960            12             624.91084     -5271.4371    
     66100        1068   960            12             533.23167     -5288.7974    
     66200        1068   960            12             479.01472     -5301.3435    
     66300        1068   960            12             455.54615     -5312.0397    
     66400        1068   960            12             420.08548     -5321.1927    
     66500        1067   960            11             404.6736      -5328.7645    
     66600        1067   960            11             394.63995     -5334.7008    
     66700        1067   960            11             376.21673     -5340.2821    
     66800        1067   960            11             372.73681     -5345.1475    
     66900        1067   960            11             350.68222     -5349.4076    
     67000        1067   960            11             331.61391     -5352.9537    
     67100        1067   960            11             334.74773     -5355.4324    
     67200        1067   960            11             319.97455     -5357.3455    
     67300        1067   960            11             322.19966     -5358.8602    
     67400        1067   960            11             321.0319      -5360.7579    
     67500        1067   960            11             308.068       -5361.8073    
     67600        1067   960            11             317.66909     -5362.5787    
     67700        1067   960            11             309.07808     -5363.6834    
     67800        1067   960            11             311.10136     -5364.4285    
     67900        1067   960            11             308.48427     -5365.0578    
     68000        1067   960            11             306.51191     -5365.8019    
Loop time of 374.543 on 1 procs for 2000 steps with 1067 atoms

Performance: 0.231 ns/day, 104.040 hours/ns, 5.340 timesteps/s, 5.698 katom-step/s
99.6% CPU use with 1 MPI tasks x 1 OpenMP threads

MPI task timing breakdown:
Section |  min time  |  avg time  |  max time  |%varavg| %total
---------------------------------------------------------------
Pair    | 373.97     | 373.97     | 373.97     |   0.0 | 99.85
Neigh   | 0.088098   | 0.088098   | 0.088098   |   0.0 |  0.02
Comm    | 0.2803     | 0.2803     | 0.2803     |   0.0 |  0.07
Output  | 0.026154   | 0.026154   | 0.026154   |   0.0 |  0.01
Modify  | 0.15323    | 0.15323    | 0.15323    |   0.0 |  0.04
Other   |            | 0.02728    |            |       |  0.01

Nlocal:           1067 ave        1067 max        1067 min
Histogram: 1 0 0 0 0 0 0 0 0 0
Nghost:           1889 ave        1889 max        1889 min
Histogram: 1 0 0 0 0 0 0 0 0 0
Neighs:              0 ave           0 max           0 min
Histogram: 1 0 0 0 0 0 0 0 0 0
FullNghs:        73572 ave       73572 max       73572 min
Histogram: 1 0 0 0 0 0 0 0 0 0

Total # of neighbors = 73572
Ave neighs/atom = 68.952202
Neighbor list builds = 400
Dangerous builds not checked

unfix           1coolB
unfix           2coolB

delete_atoms    region del
Deleted 0 atoms, new total = 1067

next		a
jump		in_cpu.lammps loop

variable    	c equal ${c}+1
variable    	c equal 17+1
variable    	deposeed equal floor(random(1,3245,${c}))
variable    	deposeed equal floor(random(1,3245,18))

fix		depo insert deposit 1 2 1000 ${deposeed} region insert vx 0.0 0.0 vy ${vely} ${vely} vz -${velz} -${velz} units box
fix		depo insert deposit 1 2 1000 153 region insert vx 0.0 0.0 vy ${vely} ${vely} vz -${velz} -${velz} units box
fix		depo insert deposit 1 2 1000 153 region insert vx 0.0 0.0 vy 0 ${vely} vz -${velz} -${velz} units box
fix		depo insert deposit 1 2 1000 153 region insert vx 0.0 0.0 vy 0 0 vz -${velz} -${velz} units box
fix		depo insert deposit 1 2 1000 153 region insert vx 0.0 0.0 vy 0 0 vz -219.776405126004 -${velz} units box
fix		depo insert deposit 1 2 1000 153 region insert vx 0.0 0.0 vy 0 0 vz -219.776405126004 -219.776405126004 units box

fix     	2 mobile nve
fix             3 insert nve

run		2000
Per MPI rank memory allocation (min/avg/max) = 162.3 | 162.3 | 162.3 Mbytes
   Step        Atoms      v_nmobile      v_ninject         Temp          TotEng    
     68000        1067   960            11             306.51191     -5365.8019    
     68100        1068   960            12             312.87337     -5365.832     
     68200        1068   960            12             418.99788     -5348.7932    
     68300        1068   960            12             560.14074     -5325.0675    
     68400        1068   960            12             545.70076     -5316.0729    
     68500        1068   960            12             542.31888     -5303.8717    
     68600        1068   960            12             538.45855     -5294.8521    
     68700        1068   960            12             555.4921      -5284.0281    
     68800        1068   960            12             646.44903     -5267.7765    
     68900        1068   960            12             602.89794     -5267.8039    
     69000        1068   960            12             606.30065     -5267.7276    
     69100        1068   960            12             591.05364     -5267.9039    
     69200        1068   960            12             616.79501     -5267.6307    
     69300        1068   960            12             613.05685     -5267.4419    
     69400        1068   960            12             602.42398     -5267.6554    
     69500        1068   960            12             600.54634     -5267.5939    
     69600        1068   960            12             599.79695     -5267.1491    
     69700        1068   960            12             627.57098     -5267.7113    
     69800        1068   960            12             633.39457     -5267.3104    
     69900        1068   960            12             610.77551     -5267.3876    
     70000        1068   960            12             623.83574     -5267.3958    
Loop time of 374.317 on 1 procs for 2000 steps with 1068 atoms

Performance: 0.231 ns/day, 103.977 hours/ns, 5.343 timesteps/s, 5.706 katom-step/s
99.6% CPU use with 1 MPI tasks x 1 OpenMP threads

MPI task timing breakdown:
Section |  min time  |  avg time  |  max time  |%varavg| %total
---------------------------------------------------------------
Pair    | 373.5      | 373.5      | 373.5      |   0.0 | 99.78
Neigh   | 0.088702   | 0.088702   | 0.088702   |   0.0 |  0.02
Comm    | 0.32351    | 0.32351    | 0.32351    |   0.0 |  0.09
Output  | 0.014655   | 0.014655   | 0.014655   |   0.0 |  0.00
Modify  | 0.23595    | 0.23595    | 0.23595    |   0.0 |  0.06
Other   |            | 0.1555     |            |       |  0.04

Nlocal:           1068 ave        1068 max        1068 min
Histogram: 1 0 0 0 0 0 0 0 0 0
Nghost:           1877 ave        1877 max        1877 min
Histogram: 1 0 0 0 0 0 0 0 0 0
Neighs:              0 ave           0 max           0 min
Histogram: 1 0 0 0 0 0 0 0 0 0
FullNghs:        73200 ave       73200 max       73200 min
Histogram: 1 0 0 0 0 0 0 0 0 0

Total # of neighbors = 73200
Ave neighs/atom = 68.539326
Neighbor list builds = 400
Dangerous builds not checked

unfix      	depo

fix        	1coolB mobile temp/berendsen 298.0 298.0 0.1
fix        	2coolB insert temp/berendsen 298.0 298.0 0.1

run		2000
Per MPI rank memory allocation (min/avg/max) = 162.2 | 162.2 | 162.2 Mbytes
   Step        Atoms      v_nmobile      v_ninject         Temp          TotEng    
     70000        1068   960            12             623.83574     -5267.3958    
     70100        1068   960            12             551.2538      -5284.9563    
     70200        1068   960            12             512.56355     -5298.9564    
     70300        1068   960            12             482.52973     -5310.7868    
     70400        1068   960            12             438.84404     -5320.6371    
     70500        1068   960            12             407.75419     -5328.2307    
     70600        1068   960            12             412.66865     -5335.7439    
     70700        1068   960            12             391.126       -5341.8609    
     70800        1068   960            12             371.98534     -5346.7688    
     70900        1068   960            12             348.24179     -5350.36      
     71000        1068   960            12             346.70003     -5353.2069    
     71100        1068   960            12             347.33882     -5356.2568    
     71200        1068   960            12             333.31121     -5359.2036    
     71300        1068   960            12             319.647       -5361.2814    
     71400        1068   960            12             315.38031     -5362.8132    
     71500        1068   960            12             323.71793     -5364.3727    
     71600        1068   960            12             307.80321     -5365.5334    
     71700        1068   960            12             312.45844     -5366.8124    
     71800        1068   960            12             310.61251     -5367.8646    
     71900        1068   960            12             306.0552      -5368.4049    
     72000        1068   960            12             303.29856     -5368.7243    
Loop time of 373.958 on 1 procs for 2000 steps with 1068 atoms

Performance: 0.231 ns/day, 103.877 hours/ns, 5.348 timesteps/s, 5.712 katom-step/s
99.6% CPU use with 1 MPI tasks x 1 OpenMP threads

MPI task timing breakdown:
Section |  min time  |  avg time  |  max time  |%varavg| %total
---------------------------------------------------------------
Pair    | 373.38     | 373.38     | 373.38     |   0.0 | 99.85
Neigh   | 0.088588   | 0.088588   | 0.088588   |   0.0 |  0.02
Comm    | 0.28134    | 0.28134    | 0.28134    |   0.0 |  0.08
Output  | 0.021886   | 0.021886   | 0.021886   |   0.0 |  0.01
Modify  | 0.1543     | 0.1543     | 0.1543     |   0.0 |  0.04
Other   |            | 0.02765    |            |       |  0.01

Nlocal:           1068 ave        1068 max        1068 min
Histogram: 1 0 0 0 0 0 0 0 0 0
Nghost:           1884 ave        1884 max        1884 min
Histogram: 1 0 0 0 0 0 0 0 0 0
Neighs:              0 ave           0 max           0 min
Histogram: 1 0 0 0 0 0 0 0 0 0
FullNghs:        72952 ave       72952 max       72952 min
Histogram: 1 0 0 0 0 0 0 0 0 0

Total # of neighbors = 72952
Ave neighs/atom = 68.307116
Neighbor list builds = 400
Dangerous builds not checked

unfix           1coolB
unfix           2coolB

delete_atoms    region del
Deleted 0 atoms, new total = 1068

next		a
jump		in_cpu.lammps loop

variable    	c equal ${c}+1
variable    	c equal 18+1
variable    	deposeed equal floor(random(1,3245,${c}))
variable    	deposeed equal floor(random(1,3245,19))

fix		depo insert deposit 1 2 1000 ${deposeed} region insert vx 0.0 0.0 vy ${vely} ${vely} vz -${velz} -${velz} units box
fix		depo insert deposit 1 2 1000 2736 region insert vx 0.0 0.0 vy ${vely} ${vely} vz -${velz} -${velz} units box
fix		depo insert deposit 1 2 1000 2736 region insert vx 0.0 0.0 vy 0 ${vely} vz -${velz} -${velz} units box
fix		depo insert deposit 1 2 1000 2736 region insert vx 0.0 0.0 vy 0 0 vz -${velz} -${velz} units box
fix		depo insert deposit 1 2 1000 2736 region insert vx 0.0 0.0 vy 0 0 vz -219.776405126004 -${velz} units box
fix		depo insert deposit 1 2 1000 2736 region insert vx 0.0 0.0 vy 0 0 vz -219.776405126004 -219.776405126004 units box

fix     	2 mobile nve
fix             3 insert nve

run		2000
Per MPI rank memory allocation (min/avg/max) = 162.3 | 162.3 | 162.3 Mbytes
   Step        Atoms      v_nmobile      v_ninject         Temp          TotEng    
     72000        1068   960            12             303.29856     -5368.7243    
     72100        1069   960            13             307.9375      -5367.47      
     72200        1069   960            13             329.35207     -5364.1999    
     72300        1069   960            13             358.29757     -5359.9868    
     72400        1069   960            13             449.16026     -5342.9868    
     72500        1069   960            13             807.93505     -5287.5399    
     72600        1069   960            13             750.07872     -5283.6925    
     72700        1069   960            13             663.07431     -5283.098     
     72800        1068   960            12             602.21183     -5284.3893    
     72900        1068   960            12             559.82995     -5284.3087    
     73000        1068   960            12             534.92614     -5284.5088    
     73100        1068   960            12             549.94178     -5284.6176    
     73200        1068   960            12             551.10556     -5284.8397    
     73300        1068   960            12             527.44938     -5284.8594    
     73400        1068   960            12             549.75022     -5284.7852    
     73500        1068   960            12             539.13775     -5284.6031    
     73600        1068   960            12             563.21595     -5284.3648    
     73700        1068   960            12             552.93947     -5284.3237    
     73800        1068   960            12             554.89386     -5284.4053    
     73900        1068   960            12             579.43053     -5284.5428    
     74000        1068   960            12             578.70564     -5284.5849    
Loop time of 372.687 on 1 procs for 2000 steps with 1068 atoms

Performance: 0.232 ns/day, 103.524 hours/ns, 5.366 timesteps/s, 5.731 katom-step/s
99.6% CPU use with 1 MPI tasks x 1 OpenMP threads

MPI task timing breakdown:
Section |  min time  |  avg time  |  max time  |%varavg| %total
---------------------------------------------------------------
Pair    | 371.87     | 371.87     | 371.87     |   0.0 | 99.78
Neigh   | 0.088394   | 0.088394   | 0.088394   |   0.0 |  0.02
Comm    | 0.32228    | 0.32228    | 0.32228    |   0.0 |  0.09
Output  | 0.014517   | 0.014517   | 0.014517   |   0.0 |  0.00
Modify  | 0.23439    | 0.23439    | 0.23439    |   0.0 |  0.06
Other   |            | 0.1551     |            |       |  0.04

Nlocal:           1068 ave        1068 max        1068 min
Histogram: 1 0 0 0 0 0 0 0 0 0
Nghost:           1844 ave        1844 max        1844 min
Histogram: 1 0 0 0 0 0 0 0 0 0
Neighs:              0 ave           0 max           0 min
Histogram: 1 0 0 0 0 0 0 0 0 0
FullNghs:        71426 ave       71426 max       71426 min
Histogram: 1 0 0 0 0 0 0 0 0 0

Total # of neighbors = 71426
Ave neighs/atom = 66.878277
Neighbor list builds = 400
Dangerous builds not checked

unfix      	depo

fix        	1coolB mobile temp/berendsen 298.0 298.0 0.1
fix        	2coolB insert temp/berendsen 298.0 298.0 0.1

run		2000
Per MPI rank memory allocation (min/avg/max) = 162.1 | 162.1 | 162.1 Mbytes
   Step        Atoms      v_nmobile      v_ninject         Temp          TotEng    
     74000        1068   960            12             578.70564     -5284.5849    
     74100        1068   960            12             481.58551     -5298.6331    
     74200        1068   960            12             456.74644     -5309.9778    
     74300        1068   960            12             421.50112     -5318.6382    
     74400        1068   960            12             419.0161      -5326.4161    
     74500        1068   960            12             395.03679     -5333.4472    
     74600        1068   960            12             367.95267     -5338.3453    
     74700        1068   960            12             371.04903     -5342.6261    
     74800        1068   960            12             349.1866      -5346.5914    
     74900        1068   960            12             342.4492      -5349.5891    
     75000        1068   960            12             323.98051     -5351.6382    
     75100        1068   960            12             315.98259     -5353.7057    
     75200        1068   960            12             321.78475     -5355.5592    
     75300        1068   960            12             328.39676     -5357.3965    
     75400        1068   960            12             322.47333     -5359.3031    
     75500        1068   960            12             314.702       -5360.6275    
     75600        1068   960            12             317.39829     -5361.8225    
     75700        1068   960            12             312.53918     -5362.8812    
     75800        1068   960            12             310.89683     -5363.7873    
     75900        1068   960            12             308.10012     -5364.6121    
     76000        1068   960            12             307.52769     -5365.1546    
Loop time of 371.618 on 1 procs for 2000 steps with 1068 atoms

Performance: 0.232 ns/day, 103.227 hours/ns, 5.382 timesteps/s, 5.748 katom-step/s
99.6% CPU use with 1 MPI tasks x 1 OpenMP threads

MPI task timing breakdown:
Section |  min time  |  avg time  |  max time  |%varavg| %total
---------------------------------------------------------------
Pair    | 371.03     | 371.03     | 371.03     |   0.0 | 99.84
Neigh   | 0.08793    | 0.08793    | 0.08793    |   0.0 |  0.02
Comm    | 0.27986    | 0.27986    | 0.27986    |   0.0 |  0.08
Output  | 0.040022   | 0.040022   | 0.040022   |   0.0 |  0.01
Modify  | 0.15384    | 0.15384    | 0.15384    |   0.0 |  0.04
Other   |            | 0.02745    |            |       |  0.01

Nlocal:           1068 ave        1068 max        1068 min
Histogram: 1 0 0 0 0 0 0 0 0 0
Nghost:           1859 ave        1859 max        1859 min
Histogram: 1 0 0 0 0 0 0 0 0 0
Neighs:              0 ave           0 max           0 min
Histogram: 1 0 0 0 0 0 0 0 0 0
FullNghs:        72512 ave       72512 max       72512 min
Histogram: 1 0 0 0 0 0 0 0 0 0

Total # of neighbors = 72512
Ave neighs/atom = 67.895131
Neighbor list builds = 400
Dangerous builds not checked

unfix           1coolB
unfix           2coolB

delete_atoms    region del
Deleted 0 atoms, new total = 1068

next		a
jump		in_cpu.lammps loop

variable    	c equal ${c}+1
variable    	c equal 19+1
variable    	deposeed equal floor(random(1,3245,${c}))
variable    	deposeed equal floor(random(1,3245,20))

fix		depo insert deposit 1 2 1000 ${deposeed} region insert vx 0.0 0.0 vy ${vely} ${vely} vz -${velz} -${velz} units box
fix		depo insert deposit 1 2 1000 2029 region insert vx 0.0 0.0 vy ${vely} ${vely} vz -${velz} -${velz} units box
fix		depo insert deposit 1 2 1000 2029 region insert vx 0.0 0.0 vy 0 ${vely} vz -${velz} -${velz} units box
fix		depo insert deposit 1 2 1000 2029 region insert vx 0.0 0.0 vy 0 0 vz -${velz} -${velz} units box
fix		depo insert deposit 1 2 1000 2029 region insert vx 0.0 0.0 vy 0 0 vz -219.776405126004 -${velz} units box
fix		depo insert deposit 1 2 1000 2029 region insert vx 0.0 0.0 vy 0 0 vz -219.776405126004 -219.776405126004 units box

fix     	2 mobile nve
fix             3 insert nve

run		2000
Per MPI rank memory allocation (min/avg/max) = 162.2 | 162.2 | 162.2 Mbytes
   Step        Atoms      v_nmobile      v_ninject         Temp          TotEng    
     76000        1068   960            12             307.52769     -5365.1546    
     76100        1069   960            13             331.16676     -5365.2318    
     76200        1069   960            13             343.41944     -5357.686     
     76300        1069   960            13             404.38177     -5344.0172    
     76400        1069   960            13             533.80296     -5316.2744    
     76500        1069   960            13             724.88457     -5282.2991    
     76600        1069   960            13             688.4186      -5270.7225    
     76700        1069   960            13             629.46258     -5270.4099    
     76800        1069   960            13             625.54327     -5269.7556    
     76900        1069   960            13             638.50817     -5268.885     
     77000        1069   960            13             621.91167     -5268.6917    
     77100        1069   960            13             572.42516     -5266.881     
     77200        1069   960            13             622.06331     -5266.3794    
     77300        1069   960            13             631.88305     -5266.4292    
     77400        1069   960            13             603.80778     -5265.8853    
     77500        1069   960            13             626.5442      -5265.8225    
     77600        1069   960            13             593.70402     -5265.733     
     77700        1069   960            13             592.43826     -5265.7226    
     77800        1069   960            13             598.8358      -5265.8455    
     77900        1069   960            13             653.29666     -5265.8619    
     78000        1069   960            13             634.21892     -5265.6843    
Loop time of 372.272 on 1 procs for 2000 steps with 1069 atoms

Performance: 0.232 ns/day, 103.409 hours/ns, 5.372 timesteps/s, 5.743 katom-step/s
99.6% CPU use with 1 MPI tasks x 1 OpenMP threads

MPI task timing breakdown:
Section |  min time  |  avg time  |  max time  |%varavg| %total
---------------------------------------------------------------
Pair    | 371.46     | 371.46     | 371.46     |   0.0 | 99.78
Neigh   | 0.088278   | 0.088278   | 0.088278   |   0.0 |  0.02
Comm    | 0.32252    | 0.32252    | 0.32252    |   0.0 |  0.09
Output  | 0.01465    | 0.01465    | 0.01465    |   0.0 |  0.00
Modify  | 0.2348     | 0.2348     | 0.2348     |   0.0 |  0.06
Other   |            | 0.1554     |            |       |  0.04

Nlocal:           1069 ave        1069 max        1069 min
Histogram: 1 0 0 0 0 0 0 0 0 0
Nghost:           1845 ave        1845 max        1845 min
Histogram: 1 0 0 0 0 0 0 0 0 0
Neighs:              0 ave           0 max           0 min
Histogram: 1 0 0 0 0 0 0 0 0 0
FullNghs:        71838 ave       71838 max       71838 min
Histogram: 1 0 0 0 0 0 0 0 0 0

Total # of neighbors = 71838
Ave neighs/atom = 67.201123
Neighbor list builds = 400
Dangerous builds not checked

unfix      	depo

fix        	1coolB mobile temp/berendsen 298.0 298.0 0.1
fix        	2coolB insert temp/berendsen 298.0 298.0 0.1

run		2000
Per MPI rank memory allocation (min/avg/max) = 162.2 | 162.2 | 162.2 Mbytes
   Step        Atoms      v_nmobile      v_ninject         Temp          TotEng    
     78000        1069   960            13             634.21892     -5265.6843    
     78100        1069   960            13             543.49422     -5283.1397    
     78200        1069   960            13             488.62648     -5296.2651    
     78300        1069   960            13             455.93902     -5307.8012    
     78400        1069   960            13             423.21633     -5316.7894    
     78500        1069   960            13             415.08457     -5324.3858    
     78600        1069   960            13             390.75139     -5331.0928    
     78700        1069   960            13             369.96256     -5336.1627    
     78800        1069   960            13             362.67986     -5340.8078    
     78900        1069   960            13             352.26539     -5344.5113    
     79000        1069   960            13             353.09774     -5348.1386    
     79100        1069   960            13             338.92104     -5350.7614    
     79200        1069   960            13             330.89518     -5353.2374    
     79300        1069   960            13             331.37132     -5355.173     
     79400        1069   960            13             319.70927     -5356.4604    
     79500        1069   960            13             308.25963     -5357.3639    
     79600        1069   960            13             319.72407     -5358.2951    
     79700        1069   960            13             315.86896     -5359.6772    
     79800        1069   960            13             314.90623     -5360.9473    
     79900        1069   960            13             309.6953      -5362.1042    
     80000        1069   960            13             319.49179     -5363.6383    
Loop time of 371.498 on 1 procs for 2000 steps with 1069 atoms

Performance: 0.233 ns/day, 103.194 hours/ns, 5.384 timesteps/s, 5.755 katom-step/s
99.6% CPU use with 1 MPI tasks x 1 OpenMP threads

MPI task timing breakdown:
Section |  min time  |  avg time  |  max time  |%varavg| %total
---------------------------------------------------------------
Pair    | 370.93     | 370.93     | 370.93     |   0.0 | 99.85
Neigh   | 0.088147   | 0.088147   | 0.088147   |   0.0 |  0.02
Comm    | 0.28125    | 0.28125    | 0.28125    |   0.0 |  0.08
Output  | 0.016719   | 0.016719   | 0.016719   |   0.0 |  0.00
Modify  | 0.15487    | 0.15487    | 0.15487    |   0.0 |  0.04
Other   |            | 0.02771    |            |       |  0.01

Nlocal:           1069 ave        1069 max        1069 min
Histogram: 1 0 0 0 0 0 0 0 0 0
Nghost:           1879 ave        1879 max        1879 min
Histogram: 1 0 0 0 0 0 0 0 0 0
Neighs:              0 ave           0 max           0 min
Histogram: 1 0 0 0 0 0 0 0 0 0
FullNghs:        72250 ave       72250 max       72250 min
Histogram: 1 0 0 0 0 0 0 0 0 0

Total # of neighbors = 72250
Ave neighs/atom = 67.586529
Neighbor list builds = 400
Dangerous builds not checked

unfix           1coolB
unfix           2coolB

delete_atoms    region del
Deleted 0 atoms, new total = 1069

next		a
jump		in_cpu.lammps loop

variable    	c equal ${c}+1
variable    	c equal 20+1
variable    	deposeed equal floor(random(1,3245,${c}))
variable    	deposeed equal floor(random(1,3245,21))

fix		depo insert deposit 1 2 1000 ${deposeed} region insert vx 0.0 0.0 vy ${vely} ${vely} vz -${velz} -${velz} units box
fix		depo insert deposit 1 2 1000 2187 region insert vx 0.0 0.0 vy ${vely} ${vely} vz -${velz} -${velz} units box
fix		depo insert deposit 1 2 1000 2187 region insert vx 0.0 0.0 vy 0 ${vely} vz -${velz} -${velz} units box
fix		depo insert deposit 1 2 1000 2187 region insert vx 0.0 0.0 vy 0 0 vz -${velz} -${velz} units box
fix		depo insert deposit 1 2 1000 2187 region insert vx 0.0 0.0 vy 0 0 vz -219.776405126004 -${velz} units box
fix		depo insert deposit 1 2 1000 2187 region insert vx 0.0 0.0 vy 0 0 vz -219.776405126004 -219.776405126004 units box

fix     	2 mobile nve
fix             3 insert nve

run		2000
Per MPI rank memory allocation (min/avg/max) = 162.3 | 162.3 | 162.3 Mbytes
   Step        Atoms      v_nmobile      v_ninject         Temp          TotEng    
     80000        1069   960            13             319.49179     -5363.6383    
     80100        1070   960            14             307.31771     -5363.5012    
     80200        1070   960            14             813.13101     -5274.4237    
     80300        1070   960            14             769.86757     -5268.3014    
     80400        1070   960            14             664.94826     -5268.3402    
     80500        1070   960            14             584.40543     -5267.8091    
     80600        1070   960            14             578.19369     -5266.8997    
     80700        1070   960            14             584.79833     -5266.8858    
     80800        1070   960            14             578.78428     -5265.4068    
     80900        1070   960            14             595.51944     -5265.5278    
     81000        1070   960            14             609.32797     -5264.9658    
     81100        1070   960            14             607.97551     -5264.2722    
     81200        1070   960            14             623.47852     -5264.0921    
     81300        1070   960            14             651.29888     -5264.0473    
     81400        1070   960            14             647.9438      -5263.9759    
     81500        1070   960            14             630.1756      -5263.9581    
     81600        1070   960            14             638.62822     -5263.9069    
     81700        1070   960            14             623.67362     -5264.0206    
     81800        1070   960            14             650.60258     -5264.126     
     81900        1070   960            14             625.51384     -5264.2743    
     82000        1070   960            14             632.59924     -5264.3526    
Loop time of 374.128 on 1 procs for 2000 steps with 1070 atoms

Performance: 0.231 ns/day, 103.925 hours/ns, 5.346 timesteps/s, 5.720 katom-step/s
99.6% CPU use with 1 MPI tasks x 1 OpenMP threads

MPI task timing breakdown:
Section |  min time  |  avg time  |  max time  |%varavg| %total
---------------------------------------------------------------
Pair    | 373.31     | 373.31     | 373.31     |   0.0 | 99.78
Neigh   | 0.088545   | 0.088545   | 0.088545   |   0.0 |  0.02
Comm    | 0.32275    | 0.32275    | 0.32275    |   0.0 |  0.09
Output  | 0.015036   | 0.015036   | 0.015036   |   0.0 |  0.00
Modify  | 0.23526    | 0.23526    | 0.23526    |   0.0 |  0.06
Other   |            | 0.1554     |            |       |  0.04

Nlocal:           1070 ave        1070 max        1070 min
Histogram: 1 0 0 0 0 0 0 0 0 0
Nghost:           1860 ave        1860 max        1860 min
Histogram: 1 0 0 0 0 0 0 0 0 0
Neighs:              0 ave           0 max           0 min
Histogram: 1 0 0 0 0 0 0 0 0 0
FullNghs:        74564 ave       74564 max       74564 min
Histogram: 1 0 0 0 0 0 0 0 0 0

Total # of neighbors = 74564
Ave neighs/atom = 69.685981
Neighbor list builds = 400
Dangerous builds not checked

unfix      	depo

fix        	1coolB mobile temp/berendsen 298.0 298.0 0.1
fix        	2coolB insert temp/berendsen 298.0 298.0 0.1

run		2000
Per MPI rank memory allocation (min/avg/max) = 162.4 | 162.4 | 162.4 Mbytes
   Step        Atoms      v_nmobile      v_ninject         Temp          TotEng    
     82000        1070   960            14             632.59924     -5264.3526    
     82100        1070   960            14             538.98097     -5281.4867    
     82200        1070   960            14             479.19435     -5294.9302    
     82300        1070   960            14             463.88779     -5306.3225    
     82400        1070   960            14             423.88774     -5315.4751    
     82500        1070   960            14             404.44608     -5322.2566    
     82600        1070   960            14             392.11        -5328.1961    
     82700        1070   960            14             370.49467     -5333.4765    
     82800        1070   960            14             353.60692     -5337.475     
     82900        1070   960            14             347.49406     -5340.8566    
     83000        1070   960            14             345.13062     -5344.3176    
     83100        1070   960            14             341.95889     -5346.7516    
     83200        1070   960            14             340.26444     -5348.7913    
     83300        1070   960            14             326.11429     -5350.7676    
     83400        1070   960            14             323.36626     -5352.6633    
     83500        1070   960            14             325.33016     -5354.2707    
     83600        1070   960            14             322.08291     -5356.26      
     83700        1070   960            14             318.2348      -5357.6074    
     83800        1070   960            14             312.68169     -5358.464     
     83900        1070   960            14             303.08946     -5359.2369    
     84000        1070   960            14             304.72591     -5359.8333    
Loop time of 376.341 on 1 procs for 2000 steps with 1070 atoms

Performance: 0.230 ns/day, 104.539 hours/ns, 5.314 timesteps/s, 5.686 katom-step/s
99.6% CPU use with 1 MPI tasks x 1 OpenMP threads

MPI task timing breakdown:
Section |  min time  |  avg time  |  max time  |%varavg| %total
---------------------------------------------------------------
Pair    | 375.78     | 375.78     | 375.78     |   0.0 | 99.85
Neigh   | 0.088376   | 0.088376   | 0.088376   |   0.0 |  0.02
Comm    | 0.27994    | 0.27994    | 0.27994    |   0.0 |  0.07
Output  | 0.016175   | 0.016175   | 0.016175   |   0.0 |  0.00
Modify  | 0.15372    | 0.15372    | 0.15372    |   0.0 |  0.04
Other   |            | 0.02732    |            |       |  0.01

Nlocal:           1070 ave        1070 max        1070 min
Histogram: 1 0 0 0 0 0 0 0 0 0
Nghost:           1905 ave        1905 max        1905 min
Histogram: 1 0 0 0 0 0 0 0 0 0
Neighs:              0 ave           0 max           0 min
Histogram: 1 0 0 0 0 0 0 0 0 0
FullNghs:        74518 ave       74518 max       74518 min
Histogram: 1 0 0 0 0 0 0 0 0 0

Total # of neighbors = 74518
Ave neighs/atom = 69.642991
Neighbor list builds = 400
Dangerous builds not checked

unfix           1coolB
unfix           2coolB

delete_atoms    region del
Deleted 0 atoms, new total = 1070

next		a
jump		in_cpu.lammps loop

variable    	c equal ${c}+1
variable    	c equal 21+1
variable    	deposeed equal floor(random(1,3245,${c}))
variable    	deposeed equal floor(random(1,3245,22))

fix		depo insert deposit 1 2 1000 ${deposeed} region insert vx 0.0 0.0 vy ${vely} ${vely} vz -${velz} -${velz} units box
fix		depo insert deposit 1 2 1000 2905 region insert vx 0.0 0.0 vy ${vely} ${vely} vz -${velz} -${velz} units box
fix		depo insert deposit 1 2 1000 2905 region insert vx 0.0 0.0 vy 0 ${vely} vz -${velz} -${velz} units box
fix		depo insert deposit 1 2 1000 2905 region insert vx 0.0 0.0 vy 0 0 vz -${velz} -${velz} units box
fix		depo insert deposit 1 2 1000 2905 region insert vx 0.0 0.0 vy 0 0 vz -219.776405126004 -${velz} units box
fix		depo insert deposit 1 2 1000 2905 region insert vx 0.0 0.0 vy 0 0 vz -219.776405126004 -219.776405126004 units box

fix     	2 mobile nve
fix             3 insert nve

run		2000
Per MPI rank memory allocation (min/avg/max) = 162.6 | 162.6 | 162.6 Mbytes
   Step        Atoms      v_nmobile      v_ninject         Temp          TotEng    
     84000        1070   960            14             304.72591     -5359.8333    
     84100        1071   960            15             315.21677     -5359.6622    
     84200        1071   960            15             652.52564     -5300.3626    
     84300        1071   960            15             647.07692     -5292.0725    
     84400        1071   960            15             611.97263     -5286.6577    
     84500        1071   960            15             567.0966      -5279.8975    
     84600        1071   960            15             557.80087     -5278.5328    
     84700        1071   960            15             550.32465     -5276.2257    
     84800        1071   960            15             609.47048     -5268.001     
     84900        1071   960            15             624.57465     -5262.3659    
     85000        1071   960            15             603.41619     -5262.1342    
     85100        1071   960            15             622.90659     -5261.2889    
     85200        1071   960            15             624.33772     -5261.1918    
     85300        1071   960            15             602.32627     -5261.1065    
     85400        1071   960            15             627.2512      -5260.4418    
     85500        1071   960            15             629.5112      -5260.6979    
     85600        1071   960            15             610.9552      -5260.5717    
     85700        1071   960            15             617.07153     -5260.6726    
     85800        1071   960            15             635.75951     -5260.7782    
     85900        1071   960            15             644.60005     -5261.0456    
     86000        1071   960            15             639.18214     -5261.0241    
Loop time of 376.515 on 1 procs for 2000 steps with 1071 atoms

Performance: 0.229 ns/day, 104.588 hours/ns, 5.312 timesteps/s, 5.689 katom-step/s
99.6% CPU use with 1 MPI tasks x 1 OpenMP threads

MPI task timing breakdown:
Section |  min time  |  avg time  |  max time  |%varavg| %total
---------------------------------------------------------------
Pair    | 375.68     | 375.68     | 375.68     |   0.0 | 99.78
Neigh   | 0.088995   | 0.088995   | 0.088995   |   0.0 |  0.02
Comm    | 0.32383    | 0.32383    | 0.32383    |   0.0 |  0.09
Output  | 0.027235   | 0.027235   | 0.027235   |   0.0 |  0.01
Modify  | 0.23578    | 0.23578    | 0.23578    |   0.0 |  0.06
Other   |            | 0.1558     |            |       |  0.04

Nlocal:           1071 ave        1071 max        1071 min
Histogram: 1 0 0 0 0 0 0 0 0 0
Nghost:           1885 ave        1885 max        1885 min
Histogram: 1 0 0 0 0 0 0 0 0 0
Neighs:              0 ave           0 max           0 min
Histogram: 1 0 0 0 0 0 0 0 0 0
FullNghs:        74506 ave       74506 max       74506 min
Histogram: 1 0 0 0 0 0 0 0 0 0

Total # of neighbors = 74506
Ave neighs/atom = 69.56676
Neighbor list builds = 400
Dangerous builds not checked

unfix      	depo

fix        	1coolB mobile temp/berendsen 298.0 298.0 0.1
fix        	2coolB insert temp/berendsen 298.0 298.0 0.1

run		2000
Per MPI rank memory allocation (min/avg/max) = 162.5 | 162.5 | 162.5 Mbytes
   Step        Atoms      v_nmobile      v_ninject         Temp          TotEng    
     86000        1071   960            15             639.18214     -5261.0241    
     86100        1071   960            15             550.10085     -5278.4116    
     86200        1071   960            15             507.40181     -5292.6785    
     86300        1071   960            15             472.68942     -5304.3822    
     86400        1071   960            15             433.19491     -5314.2751    
     86500        1071   960            15             415.76455     -5321.8378    
     86600        1071   960            15             396.87938     -5328.5188    
     86700        1071   960            15             378.276       -5333.8885    
     86800        1071   960            15             356.8782      -5338.3675    
     86900        1071   960            15             343.97706     -5341.6878    
     87000        1071   960            15             328.31938     -5344.4957    
     87100        1071   960            15             337.21083     -5346.6996    
     87200        1071   960            15             336.28938     -5348.982     
     87300        1071   960            15             332.70825     -5350.8987    
     87400        1071   960            15             330.42569     -5352.8493    
     87500        1071   960            15             308.54976     -5354.1091    
     87600        1071   960            15             309.13549     -5354.7863    
     87700        1071   960            15             316.68252     -5355.4707    
     87800        1071   960            15             304.24392     -5356.3719    
     87900        1071   960            15             309.9962      -5357.0628    
     88000        1071   960            15             311.10666     -5357.6543    
Loop time of 377.146 on 1 procs for 2000 steps with 1071 atoms

Performance: 0.229 ns/day, 104.763 hours/ns, 5.303 timesteps/s, 5.679 katom-step/s
99.6% CPU use with 1 MPI tasks x 1 OpenMP threads

MPI task timing breakdown:
Section |  min time  |  avg time  |  max time  |%varavg| %total
---------------------------------------------------------------
Pair    | 376.58     | 376.58     | 376.58     |   0.0 | 99.85
Neigh   | 0.088249   | 0.088249   | 0.088249   |   0.0 |  0.02
Comm    | 0.28182    | 0.28182    | 0.28182    |   0.0 |  0.07
Output  | 0.016512   | 0.016512   | 0.016512   |   0.0 |  0.00
Modify  | 0.15489    | 0.15489    | 0.15489    |   0.0 |  0.04
Other   |            | 0.02759    |            |       |  0.01

Nlocal:           1071 ave        1071 max        1071 min
Histogram: 1 0 0 0 0 0 0 0 0 0
Nghost:           1908 ave        1908 max        1908 min
Histogram: 1 0 0 0 0 0 0 0 0 0
Neighs:              0 ave           0 max           0 min
Histogram: 1 0 0 0 0 0 0 0 0 0
FullNghs:        74680 ave       74680 max       74680 min
Histogram: 1 0 0 0 0 0 0 0 0 0

Total # of neighbors = 74680
Ave neighs/atom = 69.729225
Neighbor list builds = 400
Dangerous builds not checked

unfix           1coolB
unfix           2coolB

delete_atoms    region del
Deleted 0 atoms, new total = 1071

next		a
jump		in_cpu.lammps loop

variable    	c equal ${c}+1
variable    	c equal 22+1
variable    	deposeed equal floor(random(1,3245,${c}))
variable    	deposeed equal floor(random(1,3245,23))

fix		depo insert deposit 1 2 1000 ${deposeed} region insert vx 0.0 0.0 vy ${vely} ${vely} vz -${velz} -${velz} units box
fix		depo insert deposit 1 2 1000 1160 region insert vx 0.0 0.0 vy ${vely} ${vely} vz -${velz} -${velz} units box
fix		depo insert deposit 1 2 1000 1160 region insert vx 0.0 0.0 vy 0 ${vely} vz -${velz} -${velz} units box
fix		depo insert deposit 1 2 1000 1160 region insert vx 0.0 0.0 vy 0 0 vz -${velz} -${velz} units box
fix		depo insert deposit 1 2 1000 1160 region insert vx 0.0 0.0 vy 0 0 vz -219.776405126004 -${velz} units box
fix		depo insert deposit 1 2 1000 1160 region insert vx 0.0 0.0 vy 0 0 vz -219.776405126004 -219.776405126004 units box

fix     	2 mobile nve
fix             3 insert nve

run		2000
Per MPI rank memory allocation (min/avg/max) = 162.8 | 162.8 | 162.8 Mbytes
   Step        Atoms      v_nmobile      v_ninject         Temp          TotEng    
     88000        1071   960            15             311.10666     -5357.6543    
     88100        1072   960            16             309.79966     -5356.8764    
     88200        1072   960            16             559.93003     -5314.4462    
     88300        1072   960            16             718.31869     -5289.5052    
     88400        1072   960            16             673.08989     -5288.9595    
     88500        1072   960            16             615.51254     -5280.8013    
     88600        1072   960            16             727.35771     -5259.4745    
     88700        1072   960            16             660.82489     -5259.4119    
     88800        1072   960            16             608.63983     -5259.9285    
     88900        1072   960            16             575.12031     -5259.8531    
     89000        1072   960            16             611.81704     -5258.8672    
     89100        1072   960            16             624.20103     -5259.1047    
     89200        1072   960            16             633.38451     -5259.0897    
     89300        1072   960            16             622.28393     -5259.0336    
     89400        1072   960            16             621.19397     -5258.9465    
     89500        1072   960            16             627.60546     -5259.2119    
     89600        1072   960            16             630.3366      -5259.0882    
     89700        1072   960            16             644.79356     -5259.0044    
     89800        1072   960            16             644.44341     -5259.0453    
     89900        1072   960            16             641.65777     -5259.4687    
     90000        1072   960            16             641.1134      -5259.3135    
Loop time of 376.883 on 1 procs for 2000 steps with 1072 atoms

Performance: 0.229 ns/day, 104.690 hours/ns, 5.307 timesteps/s, 5.689 katom-step/s
99.6% CPU use with 1 MPI tasks x 1 OpenMP threads

MPI task timing breakdown:
Section |  min time  |  avg time  |  max time  |%varavg| %total
---------------------------------------------------------------
Pair    | 376.06     | 376.06     | 376.06     |   0.0 | 99.78
Neigh   | 0.088914   | 0.088914   | 0.088914   |   0.0 |  0.02
Comm    | 0.32201    | 0.32201    | 0.32201    |   0.0 |  0.09
Output  | 0.01937    | 0.01937    | 0.01937    |   0.0 |  0.01
Modify  | 0.23487    | 0.23487    | 0.23487    |   0.0 |  0.06
Other   |            | 0.1556     |            |       |  0.04

Nlocal:           1072 ave        1072 max        1072 min
Histogram: 1 0 0 0 0 0 0 0 0 0
Nghost:           1884 ave        1884 max        1884 min
Histogram: 1 0 0 0 0 0 0 0 0 0
Neighs:              0 ave           0 max           0 min
Histogram: 1 0 0 0 0 0 0 0 0 0
FullNghs:        74654 ave       74654 max       74654 min
Histogram: 1 0 0 0 0 0 0 0 0 0

Total # of neighbors = 74654
Ave neighs/atom = 69.639925
Neighbor list builds = 400
Dangerous builds not checked

unfix      	depo

fix        	1coolB mobile temp/berendsen 298.0 298.0 0.1
fix        	2coolB insert temp/berendsen 298.0 298.0 0.1

run		2000
Per MPI rank memory allocation (min/avg/max) = 162.6 | 162.6 | 162.6 Mbytes
   Step        Atoms      v_nmobile      v_ninject         Temp          TotEng    
     90000        1072   960            16             641.1134      -5259.3135    
     90100        1072   960            16             536.5372      -5277.8406    
     90200        1072   960            16             502.58367     -5292.481     
     90300        1072   960            16             468.56084     -5304.477     
     90400        1072   960            16             426.14496     -5314.1665    
     90500        1072   960            16             389.89446     -5321.2535    
     90600        1072   960            16             390.92436     -5327.4204    
     90700        1072   960            16             374.74876     -5332.7755    
     90800        1072   960            16             354.10244     -5337.1134    
     90900        1072   960            16             351.33741     -5340.5239    
     91000        1072   960            16             349.27467     -5343.9961    
     91100        1072   960            16             333.44365     -5346.7437    
     91200        1072   960            16             319.2098      -5348.7007    
     91300        1072   960            16             321.40329     -5350.0686    
     91400        1072   960            16             319.06071     -5351.6726    
     91500        1072   960            16             316.99051     -5352.6772    
     91600        1072   960            16             320.6351      -5353.61      
     91700        1072   960            16             317.86227     -5354.7549    
     91800        1072   960            16             316.63233     -5356.1137    
     91900        1072   960            16             315.1103      -5357.3409    
     92000        1072   960            16             310.31496     -5358.5805    
Loop time of 377.415 on 1 procs for 2000 steps with 1072 atoms

Performance: 0.229 ns/day, 104.838 hours/ns, 5.299 timesteps/s, 5.681 katom-step/s
99.6% CPU use with 1 MPI tasks x 1 OpenMP threads

MPI task timing breakdown:
Section |  min time  |  avg time  |  max time  |%varavg| %total
---------------------------------------------------------------
Pair    | 376.85     | 376.85     | 376.85     |   0.0 | 99.85
Neigh   | 0.088481   | 0.088481   | 0.088481   |   0.0 |  0.02
Comm    | 0.28057    | 0.28057    | 0.28057    |   0.0 |  0.07
Output  | 0.018244   | 0.018244   | 0.018244   |   0.0 |  0.00
Modify  | 0.15387    | 0.15387    | 0.15387    |   0.0 |  0.04
Other   |            | 0.02737    |            |       |  0.01

Nlocal:           1072 ave        1072 max        1072 min
Histogram: 1 0 0 0 0 0 0 0 0 0
Nghost:           1909 ave        1909 max        1909 min
Histogram: 1 0 0 0 0 0 0 0 0 0
Neighs:              0 ave           0 max           0 min
Histogram: 1 0 0 0 0 0 0 0 0 0
FullNghs:        74708 ave       74708 max       74708 min
Histogram: 1 0 0 0 0 0 0 0 0 0

Total # of neighbors = 74708
Ave neighs/atom = 69.690299
Neighbor list builds = 400
Dangerous builds not checked

unfix           1coolB
unfix           2coolB

delete_atoms    region del
Deleted 0 atoms, new total = 1072

next		a
jump		in_cpu.lammps loop

variable    	c equal ${c}+1
variable    	c equal 23+1
variable    	deposeed equal floor(random(1,3245,${c}))
variable    	deposeed equal floor(random(1,3245,24))

fix		depo insert deposit 1 2 1000 ${deposeed} region insert vx 0.0 0.0 vy ${vely} ${vely} vz -${velz} -${velz} units box
fix		depo insert deposit 1 2 1000 2473 region insert vx 0.0 0.0 vy ${vely} ${vely} vz -${velz} -${velz} units box
fix		depo insert deposit 1 2 1000 2473 region insert vx 0.0 0.0 vy 0 ${vely} vz -${velz} -${velz} units box
fix		depo insert deposit 1 2 1000 2473 region insert vx 0.0 0.0 vy 0 0 vz -${velz} -${velz} units box
fix		depo insert deposit 1 2 1000 2473 region insert vx 0.0 0.0 vy 0 0 vz -219.776405126004 -${velz} units box
fix		depo insert deposit 1 2 1000 2473 region insert vx 0.0 0.0 vy 0 0 vz -219.776405126004 -219.776405126004 units box

fix     	2 mobile nve
fix             3 insert nve

run		2000
Per MPI rank memory allocation (min/avg/max) = 162.8 | 162.8 | 162.8 Mbytes
   Step        Atoms      v_nmobile      v_ninject         Temp          TotEng    
     92000        1072   960            16             310.31496     -5358.5805    
     92100        1073   960            17             313.02608     -5358.6077    
     92200        1073   960            17             323.02986     -5355.3395    
     92300        1073   960            17             407.00148     -5341.2165    
     92400        1073   960            17             415.18627     -5336.0541    
     92500        1073   960            17             427.05341     -5318.9738    
     92600        1073   960            17             464.27073     -5300.9681    
     92700        1071   959            16             416.94494     -5316.3861    
     92800        1071   959            16             414.74256     -5316.3582    
     92900        1071   959            16             436.02821     -5316.5064    
     93000        1071   959            16             452.23854     -5316.5011    
     93100        1071   959            16             439.26484     -5316.4377    
     93200        1071   959            16             448.25826     -5316.354     
     93300        1071   959            16             456.17462     -5316.4045    
     93400        1071   959            16             453.54956     -5316.5417    
     93500        1071   959            16             456.78743     -5316.672     
     93600        1071   959            16             454.80219     -5316.6835    
     93700        1071   959            16             454.83065     -5316.6602    
     93800        1071   959            16             462.0747      -5316.7409    
     93900        1071   959            16             475.21651     -5316.7616    
     94000        1071   959            16             466.4526      -5316.8074    
Loop time of 376.568 on 1 procs for 2000 steps with 1071 atoms

Performance: 0.229 ns/day, 104.602 hours/ns, 5.311 timesteps/s, 5.688 katom-step/s
99.6% CPU use with 1 MPI tasks x 1 OpenMP threads

MPI task timing breakdown:
Section |  min time  |  avg time  |  max time  |%varavg| %total
---------------------------------------------------------------
Pair    | 375.75     | 375.75     | 375.75     |   0.0 | 99.78
Neigh   | 0.089213   | 0.089213   | 0.089213   |   0.0 |  0.02
Comm    | 0.32224    | 0.32224    | 0.32224    |   0.0 |  0.09
Output  | 0.014579   | 0.014579   | 0.014579   |   0.0 |  0.00
Modify  | 0.23487    | 0.23487    | 0.23487    |   0.0 |  0.06
Other   |            | 0.1553     |            |       |  0.04

Nlocal:           1071 ave        1071 max        1071 min
Histogram: 1 0 0 0 0 0 0 0 0 0
Nghost:           1887 ave        1887 max        1887 min
Histogram: 1 0 0 0 0 0 0 0 0 0
Neighs:              0 ave           0 max           0 min
Histogram: 1 0 0 0 0 0 0 0 0 0
FullNghs:        73836 ave       73836 max       73836 min
Histogram: 1 0 0 0 0 0 0 0 0 0

Total # of neighbors = 73836
Ave neighs/atom = 68.941176
Neighbor list builds = 400
Dangerous builds not checked

unfix      	depo

fix        	1coolB mobile temp/berendsen 298.0 298.0 0.1
fix        	2coolB insert temp/berendsen 298.0 298.0 0.1

run		2000
Per MPI rank memory allocation (min/avg/max) = 162.9 | 162.9 | 162.9 Mbytes
   Step        Atoms      v_nmobile      v_ninject         Temp          TotEng    
     94000        1071   959            16             466.4526      -5316.8074    
     94100        1071   959            16             422.17406     -5325.0975    
     94200        1071   959            16             404.59554     -5331.9486    
     94300        1071   959            16             385.87086     -5338.3284    
     94400        1071   959            16             381.58455     -5343.7937    
     94500        1071   959            16             352.89019     -5348.0858    
     94600        1071   959            16             329.64492     -5351.0087    
     94700        1071   959            16             335.7388      -5353.4561    
     94800        1071   959            16             330.86121     -5355.3474    
     94900        1071   959            16             323.59697     -5357.0942    
     95000        1071   959            16             334.25463     -5359.1943    
     95100        1071   959            16             332.2036      -5360.8664    
     95200        1071   959            16             318.46405     -5361.9879    
     95300        1071   959            16             300.40759     -5362.8044    
     95400        1071   959            16             308.31196     -5363.6486    
     95500        1071   959            16             312.24495     -5364.5782    
     95600        1071   959            16             305.28321     -5365.1375    
     95700        1071   959            16             310.93228     -5366.001     
     95800        1071   959            16             312.11704     -5366.9379    
     95900        1071   959            16             302.04168     -5367.2375    
     96000        1071   959            16             298.84939     -5367.5965    
Loop time of 376.026 on 1 procs for 2000 steps with 1071 atoms

Performance: 0.230 ns/day, 104.452 hours/ns, 5.319 timesteps/s, 5.696 katom-step/s
99.6% CPU use with 1 MPI tasks x 1 OpenMP threads

MPI task timing breakdown:
Section |  min time  |  avg time  |  max time  |%varavg| %total
---------------------------------------------------------------
Pair    | 375.43     | 375.43     | 375.43     |   0.0 | 99.84
Neigh   | 0.08841    | 0.08841    | 0.08841    |   0.0 |  0.02
Comm    | 0.28182    | 0.28182    | 0.28182    |   0.0 |  0.07
Output  | 0.047308   | 0.047308   | 0.047308   |   0.0 |  0.01
Modify  | 0.15473    | 0.15473    | 0.15473    |   0.0 |  0.04
Other   |            | 0.02783    |            |       |  0.01

Nlocal:           1071 ave        1071 max        1071 min
Histogram: 1 0 0 0 0 0 0 0 0 0
Nghost:           1909 ave        1909 max        1909 min
Histogram: 1 0 0 0 0 0 0 0 0 0
Neighs:              0 ave           0 max           0 min
Histogram: 1 0 0 0 0 0 0 0 0 0
FullNghs:        73382 ave       73382 max       73382 min
Histogram: 1 0 0 0 0 0 0 0 0 0

Total # of neighbors = 73382
Ave neighs/atom = 68.517274
Neighbor list builds = 400
Dangerous builds not checked

unfix           1coolB
unfix           2coolB

delete_atoms    region del
Deleted 0 atoms, new total = 1071

next		a
jump		in_cpu.lammps loop

variable    	c equal ${c}+1
variable    	c equal 24+1
variable    	deposeed equal floor(random(1,3245,${c}))
variable    	deposeed equal floor(random(1,3245,25))

fix		depo insert deposit 1 2 1000 ${deposeed} region insert vx 0.0 0.0 vy ${vely} ${vely} vz -${velz} -${velz} units box
fix		depo insert deposit 1 2 1000 2930 region insert vx 0.0 0.0 vy ${vely} ${vely} vz -${velz} -${velz} units box
fix		depo insert deposit 1 2 1000 2930 region insert vx 0.0 0.0 vy 0 ${vely} vz -${velz} -${velz} units box
fix		depo insert deposit 1 2 1000 2930 region insert vx 0.0 0.0 vy 0 0 vz -${velz} -${velz} units box
fix		depo insert deposit 1 2 1000 2930 region insert vx 0.0 0.0 vy 0 0 vz -219.776405126004 -${velz} units box
fix		depo insert deposit 1 2 1000 2930 region insert vx 0.0 0.0 vy 0 0 vz -219.776405126004 -219.776405126004 units box

fix     	2 mobile nve
fix             3 insert nve

run		2000
Per MPI rank memory allocation (min/avg/max) = 162.9 | 162.9 | 162.9 Mbytes
   Step        Atoms      v_nmobile      v_ninject         Temp          TotEng    
     96000        1071   959            16             298.84939     -5367.5965    
     96100        1072   959            17             310.99153     -5367.6249    
     96200        1072   959            17             340.51353     -5360.9568    
     96300        1072   959            17             512.15023     -5333.0335    
     96400        1072   959            17             813.47426     -5284.7507    
     96500        1072   959            17             743.69823     -5275.7141    
     96600        1072   959            17             646.73207     -5270.8035    
     96700        1072   959            17             546.22659     -5271.3554    
     96800        1072   959            17             507.42518     -5271.0432    
     96900        1072   959            17             534.79229     -5271.4157    
     97000        1072   959            17             562.20384     -5269.2212    
     97100        1072   959            17             576.33448     -5268.7629    
     97200        1072   959            17             574.22749     -5268.7819    
     97300        1072   959            17             579.30093     -5268.6535    
     97400        1072   959            17             578.53924     -5268.5996    
     97500        1072   959            17             589.23979     -5268.4787    
     97600        1072   959            17             582.94566     -5268.5459    
     97700        1072   959            17             593.49255     -5268.3113    
     97800        1072   959            17             582.49281     -5268.4293    
     97900        1072   959            17             587.63819     -5268.3794    
     98000        1072   959            17             587.07874     -5268.2308    
Loop time of 374.847 on 1 procs for 2000 steps with 1072 atoms

Performance: 0.230 ns/day, 104.124 hours/ns, 5.336 timesteps/s, 5.720 katom-step/s
99.6% CPU use with 1 MPI tasks x 1 OpenMP threads

MPI task timing breakdown:
Section |  min time  |  avg time  |  max time  |%varavg| %total
---------------------------------------------------------------
Pair    | 374.03     | 374.03     | 374.03     |   0.0 | 99.78
Neigh   | 0.088506   | 0.088506   | 0.088506   |   0.0 |  0.02
Comm    | 0.32228    | 0.32228    | 0.32228    |   0.0 |  0.09
Output  | 0.01479    | 0.01479    | 0.01479    |   0.0 |  0.00
Modify  | 0.2349     | 0.2349     | 0.2349     |   0.0 |  0.06
Other   |            | 0.1554     |            |       |  0.04

Nlocal:           1072 ave        1072 max        1072 min
Histogram: 1 0 0 0 0 0 0 0 0 0
Nghost:           1887 ave        1887 max        1887 min
Histogram: 1 0 0 0 0 0 0 0 0 0
Neighs:              0 ave           0 max           0 min
Histogram: 1 0 0 0 0 0 0 0 0 0
FullNghs:        73484 ave       73484 max       73484 min
Histogram: 1 0 0 0 0 0 0 0 0 0

Total # of neighbors = 73484
Ave neighs/atom = 68.548507
Neighbor list builds = 400
Dangerous builds not checked

unfix      	depo

fix        	1coolB mobile temp/berendsen 298.0 298.0 0.1
fix        	2coolB insert temp/berendsen 298.0 298.0 0.1

run		2000
Per MPI rank memory allocation (min/avg/max) = 162.8 | 162.8 | 162.8 Mbytes
   Step        Atoms      v_nmobile      v_ninject         Temp          TotEng    
     98000        1072   959            17             587.07874     -5268.2308    
     98100        1072   959            17             502.00506     -5283.3287    
     98200        1072   959            17             470.31526     -5296.2584    
     98300        1072   959            17             449.66725     -5306.4258    
     98400        1072   959            17             411.53152     -5315.011     
     98500        1072   959            17             402.72019     -5321.46      
     98600        1072   959            17             397.31287     -5327.8308    
     98700        1072   959            17             371.19139     -5333.0408    
     98800        1072   959            17             343.95696     -5336.5625    
     98900        1072   959            17             340.08768     -5339.7212    
     99000        1072   959            17             340.6965      -5342.8515    
     99100        1072   959            17             322.4099      -5345.3518    
     99200        1072   959            17             324.26322     -5346.5283    
     99300        1072   959            17             322.18976     -5348.2428    
     99400        1072   959            17             319.15772     -5349.68      
     99500        1072   959            17             313.26349     -5350.6615    
     99600        1072   959            17             312.98286     -5351.2964    
     99700        1072   959            17             320.8872      -5352.6117    
     99800        1072   959            17             303.17014     -5353.1338    
     99900        1072   959            17             307.22235     -5353.4413    
    100000        1072   959            17             311.99133     -5354.361     
Loop time of 375.293 on 1 procs for 2000 steps with 1072 atoms

Performance: 0.230 ns/day, 104.248 hours/ns, 5.329 timesteps/s, 5.713 katom-step/s
99.6% CPU use with 1 MPI tasks x 1 OpenMP threads

MPI task timing breakdown:
Section |  min time  |  avg time  |  max time  |%varavg| %total
---------------------------------------------------------------
Pair    | 374.72     | 374.72     | 374.72     |   0.0 | 99.85
Neigh   | 0.088868   | 0.088868   | 0.088868   |   0.0 |  0.02
Comm    | 0.28036    | 0.28036    | 0.28036    |   0.0 |  0.07
Output  | 0.027183   | 0.027183   | 0.027183   |   0.0 |  0.01
Modify  | 0.15404    | 0.15404    | 0.15404    |   0.0 |  0.04
Other   |            | 0.0274     |            |       |  0.01

Nlocal:           1072 ave        1072 max        1072 min
Histogram: 1 0 0 0 0 0 0 0 0 0
Nghost:           1902 ave        1902 max        1902 min
Histogram: 1 0 0 0 0 0 0 0 0 0
Neighs:              0 ave           0 max           0 min
Histogram: 1 0 0 0 0 0 0 0 0 0
FullNghs:        73556 ave       73556 max       73556 min
Histogram: 1 0 0 0 0 0 0 0 0 0

Total # of neighbors = 73556
Ave neighs/atom = 68.615672
Neighbor list builds = 400
Dangerous builds not checked

unfix           1coolB
unfix           2coolB

delete_atoms    region del
Deleted 0 atoms, new total = 1072

next		a
jump		in_cpu.lammps loop

variable    	c equal ${c}+1
variable    	c equal 25+1
variable    	deposeed equal floor(random(1,3245,${c}))
variable    	deposeed equal floor(random(1,3245,26))

fix		depo insert deposit 1 2 1000 ${deposeed} region insert vx 0.0 0.0 vy ${vely} ${vely} vz -${velz} -${velz} units box
fix		depo insert deposit 1 2 1000 2488 region insert vx 0.0 0.0 vy ${vely} ${vely} vz -${velz} -${velz} units box
fix		depo insert deposit 1 2 1000 2488 region insert vx 0.0 0.0 vy 0 ${vely} vz -${velz} -${velz} units box
fix		depo insert deposit 1 2 1000 2488 region insert vx 0.0 0.0 vy 0 0 vz -${velz} -${velz} units box
fix		depo insert deposit 1 2 1000 2488 region insert vx 0.0 0.0 vy 0 0 vz -219.776405126004 -${velz} units box
fix		depo insert deposit 1 2 1000 2488 region insert vx 0.0 0.0 vy 0 0 vz -219.776405126004 -219.776405126004 units box

fix     	2 mobile nve
fix             3 insert nve

run		2000
Per MPI rank memory allocation (min/avg/max) = 163 | 163 | 163 Mbytes
   Step        Atoms      v_nmobile      v_ninject         Temp          TotEng    
    100000        1072   959            17             311.99133     -5354.361     
    100100        1073   959            18             320.01865     -5354.0997    
    100200        1073   959            18             722.47369     -5295.0451    
    100300        1073   959            18             648.21474     -5286.9028    
    100400        1073   959            18             595.76555     -5280.2452    
    100500        1073   959            18             562.2488      -5276.3763    
    100600        1073   959            18             554.61754     -5275.9278    
    100700        1073   959            18             616.60041     -5261.8418    
    100800        1073   959            18             598.30105     -5260.74      
    100900        1073   959            18             599.41317     -5260.1954    
    101000        1073   959            18             592.76251     -5258.2432    
    101100        1073   959            18             586.08837     -5257.8778    
    101200        1073   959            18             614.71554     -5256.2388    
    101300        1073   959            18             624.25186     -5256.1706    
    101400        1073   959            18             613.15318     -5256.3472    
    101500        1073   959            18             601.12952     -5256.8293    
    101600        1073   959            18             623.93738     -5256.7275    
    101700        1073   959            18             634.0453      -5256.4779    
    101800        1073   959            18             615.66804     -5255.4963    
    101900        1073   959            18             618.93713     -5255.2812    
    102000        1073   959            18             600.59547     -5255.2126    
Loop time of 376.174 on 1 procs for 2000 steps with 1073 atoms

Performance: 0.230 ns/day, 104.493 hours/ns, 5.317 timesteps/s, 5.705 katom-step/s
99.6% CPU use with 1 MPI tasks x 1 OpenMP threads

MPI task timing breakdown:
Section |  min time  |  avg time  |  max time  |%varavg| %total
---------------------------------------------------------------
Pair    | 375.35     | 375.35     | 375.35     |   0.0 | 99.78
Neigh   | 0.08883    | 0.08883    | 0.08883    |   0.0 |  0.02
Comm    | 0.32412    | 0.32412    | 0.32412    |   0.0 |  0.09
Output  | 0.014772   | 0.014772   | 0.014772   |   0.0 |  0.00
Modify  | 0.23718    | 0.23718    | 0.23718    |   0.0 |  0.06
Other   |            | 0.156      |            |       |  0.04

Nlocal:           1073 ave        1073 max        1073 min
Histogram: 1 0 0 0 0 0 0 0 0 0
Nghost:           1892 ave        1892 max        1892 min
Histogram: 1 0 0 0 0 0 0 0 0 0
Neighs:              0 ave           0 max           0 min
Histogram: 1 0 0 0 0 0 0 0 0 0
FullNghs:        74548 ave       74548 max       74548 min
Histogram: 1 0 0 0 0 0 0 0 0 0

Total # of neighbors = 74548
Ave neighs/atom = 69.476235
Neighbor list builds = 400
Dangerous builds not checked

unfix      	depo

fix        	1coolB mobile temp/berendsen 298.0 298.0 0.1
fix        	2coolB insert temp/berendsen 298.0 298.0 0.1

run		2000
Per MPI rank memory allocation (min/avg/max) = 162.7 | 162.7 | 162.7 Mbytes
   Step        Atoms      v_nmobile      v_ninject         Temp          TotEng    
    102000        1073   959            18             600.59547     -5255.2126    
    102100        1073   959            18             513.26833     -5270.7233    
    102200        1073   959            18             488.86231     -5283.0979    
    102300        1073   959            18             447.25688     -5293.8717    
    102400        1073   959            18             415.8202      -5302.7821    
    102500        1073   959            18             399.13752     -5310.1879    
    102600        1073   959            18             386.50187     -5316.2275    
    102700        1073   959            18             376.165       -5321.1261    
    102800        1073   959            18             365.56213     -5325.5281    
    102900        1073   959            18             362.36564     -5329.4914    
    103000        1073   959            18             348.29549     -5332.5899    
    103100        1073   959            18             334.65661     -5335.3125    
    103200        1073   959            18             327.26835     -5337.2211    
    103300        1073   959            18             323.70866     -5338.821     
    103400        1073   959            18             330.12551     -5340.9097    
    103500        1073   959            18             315.09916     -5342.4151    
    103600        1073   959            18             323.72733     -5343.3556    
    103700        1073   959            18             315.03119     -5344.8755    
    103800        1073   959            18             318.49338     -5345.9831    
    103900        1073   959            18             315.69849     -5347.0934    
    104000        1073   959            18             315.09337     -5348.2558    
Loop time of 378.505 on 1 procs for 2000 steps with 1073 atoms

Performance: 0.228 ns/day, 105.140 hours/ns, 5.284 timesteps/s, 5.670 katom-step/s
99.6% CPU use with 1 MPI tasks x 1 OpenMP threads

MPI task timing breakdown:
Section |  min time  |  avg time  |  max time  |%varavg| %total
---------------------------------------------------------------
Pair    | 377.92     | 377.92     | 377.92     |   0.0 | 99.84
Neigh   | 0.088612   | 0.088612   | 0.088612   |   0.0 |  0.02
Comm    | 0.28079    | 0.28079    | 0.28079    |   0.0 |  0.07
Output  | 0.035528   | 0.035528   | 0.035528   |   0.0 |  0.01
Modify  | 0.15457    | 0.15457    | 0.15457    |   0.0 |  0.04
Other   |            | 0.02758    |            |       |  0.01

Nlocal:           1073 ave        1073 max        1073 min
Histogram: 1 0 0 0 0 0 0 0 0 0
Nghost:           1881 ave        1881 max        1881 min
Histogram: 1 0 0 0 0 0 0 0 0 0
Neighs:              0 ave           0 max           0 min
Histogram: 1 0 0 0 0 0 0 0 0 0
FullNghs:        75618 ave       75618 max       75618 min
Histogram: 1 0 0 0 0 0 0 0 0 0

Total # of neighbors = 75618
Ave neighs/atom = 70.473439
Neighbor list builds = 400
Dangerous builds not checked

unfix           1coolB
unfix           2coolB

delete_atoms    region del
Deleted 0 atoms, new total = 1073

next		a
jump		in_cpu.lammps loop

variable    	c equal ${c}+1
variable    	c equal 26+1
variable    	deposeed equal floor(random(1,3245,${c}))
variable    	deposeed equal floor(random(1,3245,27))

fix		depo insert deposit 1 2 1000 ${deposeed} region insert vx 0.0 0.0 vy ${vely} ${vely} vz -${velz} -${velz} units box
fix		depo insert deposit 1 2 1000 742 region insert vx 0.0 0.0 vy ${vely} ${vely} vz -${velz} -${velz} units box
fix		depo insert deposit 1 2 1000 742 region insert vx 0.0 0.0 vy 0 ${vely} vz -${velz} -${velz} units box
fix		depo insert deposit 1 2 1000 742 region insert vx 0.0 0.0 vy 0 0 vz -${velz} -${velz} units box
fix		depo insert deposit 1 2 1000 742 region insert vx 0.0 0.0 vy 0 0 vz -219.776405126004 -${velz} units box
fix		depo insert deposit 1 2 1000 742 region insert vx 0.0 0.0 vy 0 0 vz -219.776405126004 -219.776405126004 units box

fix     	2 mobile nve
fix             3 insert nve

run		2000
Per MPI rank memory allocation (min/avg/max) = 162.8 | 162.8 | 162.8 Mbytes
   Step        Atoms      v_nmobile      v_ninject         Temp          TotEng    
    104000        1073   959            18             315.09337     -5348.2558    
    104100        1074   959            19             316.83536     -5348.2664    
    104200        1074   959            19             486.1934      -5322.3059    
    104300        1074   959            19             484.45363     -5317.8324    
    104400        1074   959            19             461.07957     -5311.3761    
    104500        1074   959            19             428.88511     -5308.0082    
    104600        1074   959            19             464.54791     -5299.1977    
    104700        1073   959            18             455.46919     -5301.4077    
    104800        1073   959            18             475.7295      -5301.7721    
    104900        1073   959            18             458.67328     -5301.7296    
    105000        1073   959            18             453.48798     -5301.5802    
    105100        1073   959            18             467.8219      -5301.3499    
    105200        1072   958            18             454.55084     -5299.9733    
    105300        1072   958            18             453.73973     -5300.1744    
    105400        1072   958            18             477.23291     -5300.0731    
    105500        1072   958            18             475.83413     -5300.0945    
    105600        1072   958            18             461.62767     -5299.9856    
    105700        1072   958            18             457.00726     -5299.8711    
    105800        1072   958            18             456.1831      -5299.9254    
    105900        1072   958            18             438.13621     -5299.8984    
    106000        1072   958            18             443.51039     -5299.9263    
Loop time of 377.94 on 1 procs for 2000 steps with 1072 atoms

Performance: 0.229 ns/day, 104.983 hours/ns, 5.292 timesteps/s, 5.673 katom-step/s
99.6% CPU use with 1 MPI tasks x 1 OpenMP threads

MPI task timing breakdown:
Section |  min time  |  avg time  |  max time  |%varavg| %total
---------------------------------------------------------------
Pair    | 377.12     | 377.12     | 377.12     |   0.0 | 99.78
Neigh   | 0.089314   | 0.089314   | 0.089314   |   0.0 |  0.02
Comm    | 0.32296    | 0.32296    | 0.32296    |   0.0 |  0.09
Output  | 0.016265   | 0.016265   | 0.016265   |   0.0 |  0.00
Modify  | 0.23499    | 0.23499    | 0.23499    |   0.0 |  0.06
Other   |            | 0.1555     |            |       |  0.04

Nlocal:           1072 ave        1072 max        1072 min
Histogram: 1 0 0 0 0 0 0 0 0 0
Nghost:           1895 ave        1895 max        1895 min
Histogram: 1 0 0 0 0 0 0 0 0 0
Neighs:              0 ave           0 max           0 min
Histogram: 1 0 0 0 0 0 0 0 0 0
FullNghs:        74702 ave       74702 max       74702 min
Histogram: 1 0 0 0 0 0 0 0 0 0

Total # of neighbors = 74702
Ave neighs/atom = 69.684701
Neighbor list builds = 400
Dangerous builds not checked

unfix      	depo

fix        	1coolB mobile temp/berendsen 298.0 298.0 0.1
fix        	2coolB insert temp/berendsen 298.0 298.0 0.1

run		2000
Per MPI rank memory allocation (min/avg/max) = 162.9 | 162.9 | 162.9 Mbytes
   Step        Atoms      v_nmobile      v_ninject         Temp          TotEng    
    106000        1072   958            18             443.51039     -5299.9263    
    106100        1072   958            18             420.33117     -5308.7367    
    106200        1072   958            18             411.29556     -5316.3258    
    106300        1072   958            18             390.11227     -5322.5336    
    106400        1072   958            18             359.63143     -5327.4926    
    106500        1072   958            18             351.53355     -5331.111     
    106600        1072   958            18             336.60245     -5333.8484    
    106700        1072   958            18             329.63374     -5336.3968    
    106800        1072   958            18             344.48155     -5339.2913    
    106900        1072   958            18             336.61231     -5341.893     
    107000        1072   958            18             322.08034     -5343.5792    
    107100        1072   958            18             322.73366     -5344.9348    
    107200        1072   958            18             325.07173     -5346.2603    
    107300        1072   958            18             317.59912     -5347.4592    
    107400        1072   958            18             317.1867      -5348.5062    
    107500        1072   958            18             316.86387     -5349.7125    
    107600        1072   958            18             308.96643     -5350.8716    
    107700        1072   958            18             303.04166     -5351.4523    
    107800        1072   958            18             301.485       -5352.1564    
    107900        1072   958            18             303.77053     -5352.5213    
    108000        1072   958            18             305.46896     -5353.2217    
Loop time of 377.668 on 1 procs for 2000 steps with 1072 atoms

Performance: 0.229 ns/day, 104.908 hours/ns, 5.296 timesteps/s, 5.677 katom-step/s
99.6% CPU use with 1 MPI tasks x 1 OpenMP threads

MPI task timing breakdown:
Section |  min time  |  avg time  |  max time  |%varavg| %total
---------------------------------------------------------------
Pair    | 377.08     | 377.08     | 377.08     |   0.0 | 99.84
Neigh   | 0.089171   | 0.089171   | 0.089171   |   0.0 |  0.02
Comm    | 0.28945    | 0.28945    | 0.28945    |   0.0 |  0.08
Output  | 0.017554   | 0.017554   | 0.017554   |   0.0 |  0.00
Modify  | 0.16361    | 0.16361    | 0.16361    |   0.0 |  0.04
Other   |            | 0.02962    |            |       |  0.01

Nlocal:           1072 ave        1072 max        1072 min
Histogram: 1 0 0 0 0 0 0 0 0 0
Nghost:           1919 ave        1919 max        1919 min
Histogram: 1 0 0 0 0 0 0 0 0 0
Neighs:              0 ave           0 max           0 min
Histogram: 1 0 0 0 0 0 0 0 0 0
FullNghs:        74220 ave       74220 max       74220 min
Histogram: 1 0 0 0 0 0 0 0 0 0

Total # of neighbors = 74220
Ave neighs/atom = 69.235075
Neighbor list builds = 400
Dangerous builds not checked

unfix           1coolB
unfix           2coolB

delete_atoms    region del
Deleted 0 atoms, new total = 1072

next		a
jump		in_cpu.lammps loop

variable    	c equal ${c}+1
variable    	c equal 27+1
variable    	deposeed equal floor(random(1,3245,${c}))
variable    	deposeed equal floor(random(1,3245,28))

fix		depo insert deposit 1 2 1000 ${deposeed} region insert vx 0.0 0.0 vy ${vely} ${vely} vz -${velz} -${velz} units box
fix		depo insert deposit 1 2 1000 18 region insert vx 0.0 0.0 vy ${vely} ${vely} vz -${velz} -${velz} units box
fix		depo insert deposit 1 2 1000 18 region insert vx 0.0 0.0 vy 0 ${vely} vz -${velz} -${velz} units box
fix		depo insert deposit 1 2 1000 18 region insert vx 0.0 0.0 vy 0 0 vz -${velz} -${velz} units box
fix		depo insert deposit 1 2 1000 18 region insert vx 0.0 0.0 vy 0 0 vz -219.776405126004 -${velz} units box
fix		depo insert deposit 1 2 1000 18 region insert vx 0.0 0.0 vy 0 0 vz -219.776405126004 -219.776405126004 units box

fix     	2 mobile nve
fix             3 insert nve

run		2000
Per MPI rank memory allocation (min/avg/max) = 163.1 | 163.1 | 163.1 Mbytes
   Step        Atoms      v_nmobile      v_ninject         Temp          TotEng    
    108000        1072   958            18             305.46896     -5353.2217    
    108100        1073   958            19             305.84482     -5353.0043    
    108200        1073   958            19             319.33259     -5351.6223    
    108300        1073   958            19             922.3033      -5261.565     
    108400        1073   958            19             790.91164     -5257.2609    
    108500        1073   958            19             656.48659     -5256.9854    
    108600        1073   958            19             553.92692     -5255.4348    
    108700        1073   958            19             537.69272     -5253.5008    
    108800        1073   958            19             525.90946     -5253.612     
    108900        1073   958            19             544.46534     -5253.9056    
    109000        1073   958            19             552.59175     -5253.7772    
    109100        1073   958            19             578.10382     -5253.6231    
    109200        1073   958            19             607.92609     -5253.6278    
    109300        1073   958            19             599.79776     -5253.6438    
    109400        1073   958            19             570.84235     -5253.6923    
    109500        1073   958            19             554.79568     -5253.9206    
    109600        1073   958            19             588.88179     -5253.7793    
    109700        1073   958            19             580.6265      -5253.6078    
    109800        1073   958            19             582.41075     -5254.0977    
    109900        1073   958            19             575.48562     -5254.3534    
    110000        1073   958            19             566.34068     -5254.5387    
Loop time of 378.666 on 1 procs for 2000 steps with 1073 atoms

Performance: 0.228 ns/day, 105.185 hours/ns, 5.282 timesteps/s, 5.667 katom-step/s
99.6% CPU use with 1 MPI tasks x 1 OpenMP threads

MPI task timing breakdown:
Section |  min time  |  avg time  |  max time  |%varavg| %total
---------------------------------------------------------------
Pair    | 377.8      | 377.8      | 377.8      |   0.0 | 99.77
Neigh   | 0.091147   | 0.091147   | 0.091147   |   0.0 |  0.02
Comm    | 0.34338    | 0.34338    | 0.34338    |   0.0 |  0.09
Output  | 0.014639   | 0.014639   | 0.014639   |   0.0 |  0.00
Modify  | 0.25021    | 0.25021    | 0.25021    |   0.0 |  0.07
Other   |            | 0.1628     |            |       |  0.04

Nlocal:           1073 ave        1073 max        1073 min
Histogram: 1 0 0 0 0 0 0 0 0 0
Nghost:           1873 ave        1873 max        1873 min
Histogram: 1 0 0 0 0 0 0 0 0 0
Neighs:              0 ave           0 max           0 min
Histogram: 1 0 0 0 0 0 0 0 0 0
FullNghs:        75404 ave       75404 max       75404 min
Histogram: 1 0 0 0 0 0 0 0 0 0

Total # of neighbors = 75404
Ave neighs/atom = 70.273998
Neighbor list builds = 400
Dangerous builds not checked

unfix      	depo

fix        	1coolB mobile temp/berendsen 298.0 298.0 0.1
fix        	2coolB insert temp/berendsen 298.0 298.0 0.1

run		2000
Per MPI rank memory allocation (min/avg/max) = 162.9 | 162.9 | 162.9 Mbytes
   Step        Atoms      v_nmobile      v_ninject         Temp          TotEng    
    110000        1073   958            19             566.34068     -5254.5387    
    110100        1073   958            19             489.05895     -5268.1962    
    110200        1073   958            19             487.746       -5279.4405    
    110300        1073   958            19             442.01009     -5289.4287    
    110400        1073   958            19             420.86158     -5297.6148    
    110500        1073   958            19             410.77797     -5304.7028    
    110600        1073   958            19             378.30389     -5310.4019    
    110700        1073   958            19             356.01019     -5315.2069    
    110800        1073   958            19             349.61782     -5318.7949    
    110900        1073   958            19             341.66094     -5321.8782    
    111000        1073   958            19             336.9365      -5324.583     
    111100        1073   958            19             326.83535     -5326.8377    
    111200        1073   958            19             327.67262     -5328.8193    
    111300        1073   958            19             312.05976     -5330.2479    
    111400        1073   958            19             319.33681     -5331.2306    
    111500        1073   958            19             324.49391     -5332.2498    
    111600        1073   958            19             307.69632     -5333.4358    
    111700        1073   958            19             319.67622     -5334.5508    
    111800        1073   958            19             304.28946     -5335.1328    
    111900        1073   958            19             310.94997     -5336.1753    
    112000        1073   958            19             313.71659     -5337.2167    
Loop time of 380.285 on 1 procs for 2000 steps with 1073 atoms

Performance: 0.227 ns/day, 105.635 hours/ns, 5.259 timesteps/s, 5.643 katom-step/s
99.7% CPU use with 1 MPI tasks x 1 OpenMP threads

MPI task timing breakdown:
Section |  min time  |  avg time  |  max time  |%varavg| %total
---------------------------------------------------------------
Pair    | 379.66     | 379.66     | 379.66     |   0.0 | 99.84
Neigh   | 0.091045   | 0.091045   | 0.091045   |   0.0 |  0.02
Comm    | 0.30172    | 0.30172    | 0.30172    |   0.0 |  0.08
Output  | 0.019039   | 0.019039   | 0.019039   |   0.0 |  0.01
Modify  | 0.17769    | 0.17769    | 0.17769    |   0.0 |  0.05
Other   |            | 0.03346    |            |       |  0.01

Nlocal:           1073 ave        1073 max        1073 min
Histogram: 1 0 0 0 0 0 0 0 0 0
Nghost:           1890 ave        1890 max        1890 min
Histogram: 1 0 0 0 0 0 0 0 0 0
Neighs:              0 ave           0 max           0 min
Histogram: 1 0 0 0 0 0 0 0 0 0
FullNghs:        75908 ave       75908 max       75908 min
Histogram: 1 0 0 0 0 0 0 0 0 0

Total # of neighbors = 75908
Ave neighs/atom = 70.743709
Neighbor list builds = 400
Dangerous builds not checked

unfix           1coolB
unfix           2coolB

delete_atoms    region del
Deleted 0 atoms, new total = 1073

next		a
jump		in_cpu.lammps loop

variable    	c equal ${c}+1
variable    	c equal 28+1
variable    	deposeed equal floor(random(1,3245,${c}))
variable    	deposeed equal floor(random(1,3245,29))

fix		depo insert deposit 1 2 1000 ${deposeed} region insert vx 0.0 0.0 vy ${vely} ${vely} vz -${velz} -${velz} units box
fix		depo insert deposit 1 2 1000 2448 region insert vx 0.0 0.0 vy ${vely} ${vely} vz -${velz} -${velz} units box
fix		depo insert deposit 1 2 1000 2448 region insert vx 0.0 0.0 vy 0 ${vely} vz -${velz} -${velz} units box
fix		depo insert deposit 1 2 1000 2448 region insert vx 0.0 0.0 vy 0 0 vz -${velz} -${velz} units box
fix		depo insert deposit 1 2 1000 2448 region insert vx 0.0 0.0 vy 0 0 vz -219.776405126004 -${velz} units box
fix		depo insert deposit 1 2 1000 2448 region insert vx 0.0 0.0 vy 0 0 vz -219.776405126004 -219.776405126004 units box

fix     	2 mobile nve
fix             3 insert nve

run		2000
Per MPI rank memory allocation (min/avg/max) = 162.9 | 162.9 | 162.9 Mbytes
   Step        Atoms      v_nmobile      v_ninject         Temp          TotEng    
    112000        1073   958            19             313.71659     -5337.2167    
    112100        1074   958            20             308.50011     -5337.2465    
    112200        1074   958            20             479.35671     -5314.1597    
    112300        1074   958            20             551.22064     -5291.3176    
    112400        1074   958            20             542.3567      -5284.7867    
    112500        1074   958            20             650.4605      -5265.3291    
    112600        1074   958            20             598.35356     -5263.9234    
    112700        1074   958            20             543.53594     -5263.2345    
    112800        1074   958            20             551.67724     -5257.5019    
    112900        1074   958            20             578.33668     -5261.7305    
    113000        1074   958            20             594.05071     -5261.4584    
    113100        1074   958            20             668.83643     -5248.6135    
    113200        1074   958            20             648.25128     -5248.1278    
    113300        1074   958            20             654.23899     -5243.4601    
    113400        1073   957            20             632.49759     -5241.3627    
    113500        1073   957            20             612.42412     -5241.5692    
    113600        1073   957            20             607.73878     -5241.814     
    113700        1073   957            20             616.83995     -5241.7525    
    113800        1073   957            20             612.55787     -5241.5756    
    113900        1073   957            20             642.70739     -5241.8444    
    114000        1073   957            20             629.61613     -5241.2885    
Loop time of 379.391 on 1 procs for 2000 steps with 1073 atoms

Performance: 0.228 ns/day, 105.386 hours/ns, 5.272 timesteps/s, 5.656 katom-step/s
99.7% CPU use with 1 MPI tasks x 1 OpenMP threads

MPI task timing breakdown:
Section |  min time  |  avg time  |  max time  |%varavg| %total
---------------------------------------------------------------
Pair    | 378.53     | 378.53     | 378.53     |   0.0 | 99.77
Neigh   | 0.090583   | 0.090583   | 0.090583   |   0.0 |  0.02
Comm    | 0.34355    | 0.34355    | 0.34355    |   0.0 |  0.09
Output  | 0.014666   | 0.014666   | 0.014666   |   0.0 |  0.00
Modify  | 0.25026    | 0.25026    | 0.25026    |   0.0 |  0.07
Other   |            | 0.1625     |            |       |  0.04

Nlocal:           1073 ave        1073 max        1073 min
Histogram: 1 0 0 0 0 0 0 0 0 0
Nghost:           1891 ave        1891 max        1891 min
Histogram: 1 0 0 0 0 0 0 0 0 0
Neighs:              0 ave           0 max           0 min
Histogram: 1 0 0 0 0 0 0 0 0 0
FullNghs:        74596 ave       74596 max       74596 min
Histogram: 1 0 0 0 0 0 0 0 0 0

Total # of neighbors = 74596
Ave neighs/atom = 69.520969
Neighbor list builds = 400
Dangerous builds not checked

unfix      	depo

fix        	1coolB mobile temp/berendsen 298.0 298.0 0.1
fix        	2coolB insert temp/berendsen 298.0 298.0 0.1

run		2000
Per MPI rank memory allocation (min/avg/max) = 163 | 163 | 163 Mbytes
   Step        Atoms      v_nmobile      v_ninject         Temp          TotEng    
    114000        1073   957            20             629.61613     -5241.2885    
    114100        1073   957            20             537.44601     -5258.5832    
    114200        1073   957            20             506.29723     -5272.4117    
    114300        1073   957            20             470.20923     -5283.4153    
    114400        1073   957            20             427.82283     -5292.5455    
    114500        1073   957            20             400.23829     -5300.1864    
    114600        1073   957            20             394.51204     -5306.3975    
    114700        1073   957            20             371.67756     -5311.8245    
    114800        1073   957            20             372.67603     -5316.883     
    114900        1073   957            20             346.44935     -5321.0079    
    115000        1073   957            20             351.62581     -5324.3961    
    115100        1073   957            20             329.65321     -5326.7262    
    115200        1073   957            20             333.36133     -5329.1622    
    115300        1073   957            20             340.84349     -5331.3321    
    115400        1073   957            20             318.24041     -5332.9394    
    115500        1073   957            20             322.37028     -5334.2675    
    115600        1073   957            20             306.03106     -5335.6034    
    115700        1073   957            20             307.62476     -5336.1495    
    115800        1073   957            20             306.79418     -5336.7033    
    115900        1073   957            20             312.74669     -5337.5284    
    116000        1073   957            20             311.08913     -5338.4535    
Loop time of 378.511 on 1 procs for 2000 steps with 1073 atoms

Performance: 0.228 ns/day, 105.142 hours/ns, 5.284 timesteps/s, 5.670 katom-step/s
99.6% CPU use with 1 MPI tasks x 1 OpenMP threads

MPI task timing breakdown:
Section |  min time  |  avg time  |  max time  |%varavg| %total
---------------------------------------------------------------
Pair    | 377.85     | 377.85     | 377.85     |   0.0 | 99.83
Neigh   | 0.090189   | 0.090189   | 0.090189   |   0.0 |  0.02
Comm    | 0.30152    | 0.30152    | 0.30152    |   0.0 |  0.08
Output  | 0.053952   | 0.053952   | 0.053952   |   0.0 |  0.01
Modify  | 0.17768    | 0.17768    | 0.17768    |   0.0 |  0.05
Other   |            | 0.03346    |            |       |  0.01

Nlocal:           1073 ave        1073 max        1073 min
Histogram: 1 0 0 0 0 0 0 0 0 0
Nghost:           1885 ave        1885 max        1885 min
Histogram: 1 0 0 0 0 0 0 0 0 0
Neighs:              0 ave           0 max           0 min
Histogram: 1 0 0 0 0 0 0 0 0 0
FullNghs:        74784 ave       74784 max       74784 min
Histogram: 1 0 0 0 0 0 0 0 0 0

Total # of neighbors = 74784
Ave neighs/atom = 69.696179
Neighbor list builds = 400
Dangerous builds not checked

unfix           1coolB
unfix           2coolB

delete_atoms    region del
Deleted 0 atoms, new total = 1073

next		a
jump		in_cpu.lammps loop

variable    	c equal ${c}+1
variable    	c equal 29+1
variable    	deposeed equal floor(random(1,3245,${c}))
variable    	deposeed equal floor(random(1,3245,30))

fix		depo insert deposit 1 2 1000 ${deposeed} region insert vx 0.0 0.0 vy ${vely} ${vely} vz -${velz} -${velz} units box
fix		depo insert deposit 1 2 1000 2461 region insert vx 0.0 0.0 vy ${vely} ${vely} vz -${velz} -${velz} units box
fix		depo insert deposit 1 2 1000 2461 region insert vx 0.0 0.0 vy 0 ${vely} vz -${velz} -${velz} units box
fix		depo insert deposit 1 2 1000 2461 region insert vx 0.0 0.0 vy 0 0 vz -${velz} -${velz} units box
fix		depo insert deposit 1 2 1000 2461 region insert vx 0.0 0.0 vy 0 0 vz -219.776405126004 -${velz} units box
fix		depo insert deposit 1 2 1000 2461 region insert vx 0.0 0.0 vy 0 0 vz -219.776405126004 -219.776405126004 units box

fix     	2 mobile nve
fix             3 insert nve

run		2000
Per MPI rank memory allocation (min/avg/max) = 162.9 | 162.9 | 162.9 Mbytes
   Step        Atoms      v_nmobile      v_ninject         Temp          TotEng    
    116000        1073   957            20             311.08913     -5338.4535    
    116100        1074   957            21             318.93562     -5338.53      
    116200        1074   957            21             473.95064     -5313.5382    
    116300        1074   957            21             794.51387     -5255.2731    
    116400        1074   957            21             692.08762     -5255.3955    
    116500        1074   957            21             600.95307     -5255.1448    
    116600        1074   957            21             543.11347     -5255.7124    
    116700        1074   957            21             546.63207     -5252.1847    
    116800        1074   957            21             545.95784     -5247.6841    
    116900        1074   957            21             574.36201     -5246.1794    
    117000        1074   957            21             576.40738     -5244.2638    
    117100        1074   957            21             569.80444     -5244.0739    
    117200        1074   957            21             599.57224     -5243.8823    
    117300        1074   957            21             587.65249     -5245.1344    
    117400        1074   957            21             607.96824     -5245.2487    
    117500        1074   957            21             612.59421     -5244.0122    
    117600        1073   957            20             598.5463      -5245.0948    
    117700        1073   957            20             598.08654     -5244.9903    
    117800        1073   957            20             621.81501     -5244.4349    
    117900        1073   957            20             609.95291     -5244.2703    
    118000        1073   957            20             618.96574     -5244.672     
Loop time of 378.328 on 1 procs for 2000 steps with 1073 atoms

Performance: 0.228 ns/day, 105.091 hours/ns, 5.286 timesteps/s, 5.672 katom-step/s
99.6% CPU use with 1 MPI tasks x 1 OpenMP threads

MPI task timing breakdown:
Section |  min time  |  avg time  |  max time  |%varavg| %total
---------------------------------------------------------------
Pair    | 377.47     | 377.47     | 377.47     |   0.0 | 99.77
Neigh   | 0.090346   | 0.090346   | 0.090346   |   0.0 |  0.02
Comm    | 0.34124    | 0.34124    | 0.34124    |   0.0 |  0.09
Output  | 0.014644   | 0.014644   | 0.014644   |   0.0 |  0.00
Modify  | 0.24897    | 0.24897    | 0.24897    |   0.0 |  0.07
Other   |            | 0.1619     |            |       |  0.04

Nlocal:           1073 ave        1073 max        1073 min
Histogram: 1 0 0 0 0 0 0 0 0 0
Nghost:           1854 ave        1854 max        1854 min
Histogram: 1 0 0 0 0 0 0 0 0 0
Neighs:              0 ave           0 max           0 min
Histogram: 1 0 0 0 0 0 0 0 0 0
FullNghs:        75246 ave       75246 max       75246 min
Histogram: 1 0 0 0 0 0 0 0 0 0

Total # of neighbors = 75246
Ave neighs/atom = 70.126747
Neighbor list builds = 400
Dangerous builds not checked

unfix      	depo

fix        	1coolB mobile temp/berendsen 298.0 298.0 0.1
fix        	2coolB insert temp/berendsen 298.0 298.0 0.1

run		2000
Per MPI rank memory allocation (min/avg/max) = 162.8 | 162.8 | 162.8 Mbytes
   Step        Atoms      v_nmobile      v_ninject         Temp          TotEng    
    118000        1073   957            20             618.96574     -5244.672     
    118100        1073   957            20             528.99372     -5261.7157    
    118200        1073   957            20             469.73124     -5274.2436    
    118300        1073   957            20             461.72937     -5284.3456    
    118400        1073   957            20             429.62239     -5293.5574    
    118500        1073   957            20             408.19882     -5301.0953    
    118600        1073   957            20             404.60126     -5307.9716    
    118700        1073   957            20             368.76395     -5313.1087    
    118800        1073   957            20             365.48769     -5317.5407    
    118900        1073   957            20             361.7142      -5321.5572    
    119000        1073   957            20             335.85719     -5324.8548    
    119100        1073   957            20             332.00352     -5327.2395    
    119200        1073   957            20             333.63157     -5329.1975    
    119300        1073   957            20             328.39806     -5331.0518    
    119400        1073   957            20             338.12266     -5332.9086    
    119500        1073   957            20             321.02316     -5334.9816    
    119600        1073   957            20             319.94901     -5336.6346    
    119700        1073   957            20             312.63997     -5337.7307    
    119800        1073   957            20             312.32543     -5338.4241    
    119900        1073   957            20             318.3562      -5339.2233    
    120000        1073   957            20             315.41609     -5340.4453    
Loop time of 379.411 on 1 procs for 2000 steps with 1073 atoms

Performance: 0.228 ns/day, 105.392 hours/ns, 5.271 timesteps/s, 5.656 katom-step/s
99.7% CPU use with 1 MPI tasks x 1 OpenMP threads

MPI task timing breakdown:
Section |  min time  |  avg time  |  max time  |%varavg| %total
---------------------------------------------------------------
Pair    | 378.79     | 378.79     | 378.79     |   0.0 | 99.84
Neigh   | 0.090578   | 0.090578   | 0.090578   |   0.0 |  0.02
Comm    | 0.30162    | 0.30162    | 0.30162    |   0.0 |  0.08
Output  | 0.017183   | 0.017183   | 0.017183   |   0.0 |  0.00
Modify  | 0.17744    | 0.17744    | 0.17744    |   0.0 |  0.05
Other   |            | 0.03318    |            |       |  0.01

Nlocal:           1073 ave        1073 max        1073 min
Histogram: 1 0 0 0 0 0 0 0 0 0
Nghost:           1890 ave        1890 max        1890 min
Histogram: 1 0 0 0 0 0 0 0 0 0
Neighs:              0 ave           0 max           0 min
Histogram: 1 0 0 0 0 0 0 0 0 0
FullNghs:        75372 ave       75372 max       75372 min
Histogram: 1 0 0 0 0 0 0 0 0 0

Total # of neighbors = 75372
Ave neighs/atom = 70.244175
Neighbor list builds = 400
Dangerous builds not checked

unfix           1coolB
unfix           2coolB

delete_atoms    region del
Deleted 0 atoms, new total = 1073

next		a
jump		in_cpu.lammps loop

variable    	c equal ${c}+1
variable    	c equal 30+1
variable    	deposeed equal floor(random(1,3245,${c}))
variable    	deposeed equal floor(random(1,3245,31))

fix		depo insert deposit 1 2 1000 ${deposeed} region insert vx 0.0 0.0 vy ${vely} ${vely} vz -${velz} -${velz} units box
fix		depo insert deposit 1 2 1000 1861 region insert vx 0.0 0.0 vy ${vely} ${vely} vz -${velz} -${velz} units box
fix		depo insert deposit 1 2 1000 1861 region insert vx 0.0 0.0 vy 0 ${vely} vz -${velz} -${velz} units box
fix		depo insert deposit 1 2 1000 1861 region insert vx 0.0 0.0 vy 0 0 vz -${velz} -${velz} units box
fix		depo insert deposit 1 2 1000 1861 region insert vx 0.0 0.0 vy 0 0 vz -219.776405126004 -${velz} units box
fix		depo insert deposit 1 2 1000 1861 region insert vx 0.0 0.0 vy 0 0 vz -219.776405126004 -219.776405126004 units box

fix     	2 mobile nve
fix             3 insert nve

run		2000
Per MPI rank memory allocation (min/avg/max) = 162.8 | 162.8 | 162.8 Mbytes
   Step        Atoms      v_nmobile      v_ninject         Temp          TotEng    
    120000        1073   957            20             315.41609     -5340.4453    
    120100        1074   957            21             329.63298     -5340.4263    
    120200        1074   957            21             702.87773     -5280.2794    
    120300        1074   957            21             747.51845     -5262.7409    
    120400        1074   957            21             662.63814     -5262.3648    
    120500        1074   957            21             572.94115     -5259.7033    
    120600        1074   957            21             614.55886     -5248.6048    
    120700        1074   957            21             588.10455     -5248.2533    
    120800        1074   957            21             613.11015     -5247.4848    
    120900        1074   957            21             641.45538     -5242.2404    
    121000        1074   957            21             626.99803     -5242.3328    
    121100        1074   957            21             637.70989     -5242.4498    
    121200        1074   957            21             633.11013     -5242.4151    
    121300        1074   957            21             634.12601     -5242.7609    
    121400        1074   957            21             645.74119     -5242.5891    
    121500        1074   957            21             650.84371     -5241.7818    
    121600        1074   957            21             666.89432     -5241.9093    
    121700        1074   957            21             642.50145     -5242.2095    
    121800        1074   957            21             665.87352     -5242.0179    
    121900        1074   957            21             638.76749     -5241.5388    
    122000        1074   957            21             626.47637     -5241.6158    
Loop time of 380.226 on 1 procs for 2000 steps with 1074 atoms

Performance: 0.227 ns/day, 105.618 hours/ns, 5.260 timesteps/s, 5.649 katom-step/s
99.6% CPU use with 1 MPI tasks x 1 OpenMP threads

MPI task timing breakdown:
Section |  min time  |  avg time  |  max time  |%varavg| %total
---------------------------------------------------------------
Pair    | 379.36     | 379.36     | 379.36     |   0.0 | 99.77
Neigh   | 0.090414   | 0.090414   | 0.090414   |   0.0 |  0.02
Comm    | 0.34332    | 0.34332    | 0.34332    |   0.0 |  0.09
Output  | 0.015327   | 0.015327   | 0.015327   |   0.0 |  0.00
Modify  | 0.25001    | 0.25001    | 0.25001    |   0.0 |  0.07
Other   |            | 0.1628     |            |       |  0.04

Nlocal:           1074 ave        1074 max        1074 min
Histogram: 1 0 0 0 0 0 0 0 0 0
Nghost:           1890 ave        1890 max        1890 min
Histogram: 1 0 0 0 0 0 0 0 0 0
Neighs:              0 ave           0 max           0 min
Histogram: 1 0 0 0 0 0 0 0 0 0
FullNghs:        76486 ave       76486 max       76486 min
Histogram: 1 0 0 0 0 0 0 0 0 0

Total # of neighbors = 76486
Ave neighs/atom = 71.216015
Neighbor list builds = 400
Dangerous builds not checked

unfix      	depo

fix        	1coolB mobile temp/berendsen 298.0 298.0 0.1
fix        	2coolB insert temp/berendsen 298.0 298.0 0.1

run		2000
Per MPI rank memory allocation (min/avg/max) = 163.4 | 163.4 | 163.4 Mbytes
   Step        Atoms      v_nmobile      v_ninject         Temp          TotEng    
    122000        1074   957            21             626.47637     -5241.6158    
    122100        1074   957            21             543.39911     -5258.9598    
    122200        1074   957            21             491.80002     -5271.9664    
    122300        1074   957            21             440.77971     -5282.6899    
    122400        1074   957            21             431.12171     -5291.3458    
    122500        1074   957            21             401.33521     -5298.3329    
    122600        1074   957            21             377.56381     -5303.6056    
    122700        1074   957            21             375.98248     -5308.7326    
    122800        1074   957            21             366.4253      -5312.9834    
    122900        1074   957            21             340.90731     -5316.4626    
    123000        1074   957            21             332.85757     -5319.1129    
    123100        1074   957            21             338.40363     -5321.5445    
    123200        1074   957            21             325.88175     -5323.7768    
    123300        1074   957            21             323.69706     -5325.4398    
    123400        1074   957            21             316.07309     -5326.7817    
    123500        1074   957            21             315.61043     -5328.09      
    123600        1074   957            21             313.98885     -5329.2079    
    123700        1074   957            21             305.53199     -5330.1673    
    123800        1074   957            21             304.88969     -5330.8949    
    123900        1074   957            21             306.44541     -5331.3962    
    124000        1074   957            21             304.74737     -5331.3276    
Loop time of 383.56 on 1 procs for 2000 steps with 1074 atoms

Performance: 0.225 ns/day, 106.544 hours/ns, 5.214 timesteps/s, 5.600 katom-step/s
99.7% CPU use with 1 MPI tasks x 1 OpenMP threads

MPI task timing breakdown:
Section |  min time  |  avg time  |  max time  |%varavg| %total
---------------------------------------------------------------
Pair    | 382.91     | 382.91     | 382.91     |   0.0 | 99.83
Neigh   | 0.09128    | 0.09128    | 0.09128    |   0.0 |  0.02
Comm    | 0.30174    | 0.30174    | 0.30174    |   0.0 |  0.08
Output  | 0.041857   | 0.041857   | 0.041857   |   0.0 |  0.01
Modify  | 0.17786    | 0.17786    | 0.17786    |   0.0 |  0.05
Other   |            | 0.03346    |            |       |  0.01

Nlocal:           1074 ave        1074 max        1074 min
Histogram: 1 0 0 0 0 0 0 0 0 0
Nghost:           1884 ave        1884 max        1884 min
Histogram: 1 0 0 0 0 0 0 0 0 0
Neighs:              0 ave           0 max           0 min
Histogram: 1 0 0 0 0 0 0 0 0 0
FullNghs:        77690 ave       77690 max       77690 min
Histogram: 1 0 0 0 0 0 0 0 0 0

Total # of neighbors = 77690
Ave neighs/atom = 72.337058
Neighbor list builds = 400
Dangerous builds not checked

unfix           1coolB
unfix           2coolB

delete_atoms    region del
Deleted 0 atoms, new total = 1074

next		a
jump		in_cpu.lammps loop

variable    	c equal ${c}+1
variable    	c equal 31+1
variable    	deposeed equal floor(random(1,3245,${c}))
variable    	deposeed equal floor(random(1,3245,32))

fix		depo insert deposit 1 2 1000 ${deposeed} region insert vx 0.0 0.0 vy ${vely} ${vely} vz -${velz} -${velz} units box
fix		depo insert deposit 1 2 1000 2192 region insert vx 0.0 0.0 vy ${vely} ${vely} vz -${velz} -${velz} units box
fix		depo insert deposit 1 2 1000 2192 region insert vx 0.0 0.0 vy 0 ${vely} vz -${velz} -${velz} units box
fix		depo insert deposit 1 2 1000 2192 region insert vx 0.0 0.0 vy 0 0 vz -${velz} -${velz} units box
fix		depo insert deposit 1 2 1000 2192 region insert vx 0.0 0.0 vy 0 0 vz -219.776405126004 -${velz} units box
fix		depo insert deposit 1 2 1000 2192 region insert vx 0.0 0.0 vy 0 0 vz -219.776405126004 -219.776405126004 units box

fix     	2 mobile nve
fix             3 insert nve

run		2000
Per MPI rank memory allocation (min/avg/max) = 164.1 | 164.1 | 164.1 Mbytes
   Step        Atoms      v_nmobile      v_ninject         Temp          TotEng    
    124000        1074   957            21             304.74737     -5331.3276    
    124100        1075   957            22             316.16546     -5331.3683    
    124200        1075   957            22             678.76428     -5277.8077    
    124300        1075   957            22             994.17432     -5234.7547    
    124400        1075   957            22             870.59303     -5233.814     
    124500        1075   957            22             783.35736     -5233.6461    
    124600        1075   957            22             699.23357     -5233.7224    
    124700        1075   957            22             610.73225     -5233.5817    
    124800        1075   957            22             622.41594     -5233.4695    
    124900        1075   957            22             595.82649     -5233.5466    
    125000        1075   957            22             614.97865     -5233.776     
    125100        1075   957            22             579.71036     -5233.2411    
    125200        1075   957            22             604.91805     -5233.2674    
    125300        1075   957            22             595.78232     -5233.1478    
    125400        1075   957            22             617.95196     -5233.2976    
    125500        1075   957            22             613.8467      -5233.3216    
    125600        1075   957            22             603.10572     -5233.4996    
    125700        1075   957            22             613.76631     -5233.4097    
    125800        1075   957            22             611.49935     -5233.565     
    125900        1075   957            22             606.34988     -5233.2561    
    126000        1075   957            22             594.12663     -5233.2354    
Loop time of 383.529 on 1 procs for 2000 steps with 1075 atoms

Performance: 0.225 ns/day, 106.536 hours/ns, 5.215 timesteps/s, 5.606 katom-step/s
99.6% CPU use with 1 MPI tasks x 1 OpenMP threads

MPI task timing breakdown:
Section |  min time  |  avg time  |  max time  |%varavg| %total
---------------------------------------------------------------
Pair    | 382.66     | 382.66     | 382.66     |   0.0 | 99.77
Neigh   | 0.092398   | 0.092398   | 0.092398   |   0.0 |  0.02
Comm    | 0.34341    | 0.34341    | 0.34341    |   0.0 |  0.09
Output  | 0.015066   | 0.015066   | 0.015066   |   0.0 |  0.00
Modify  | 0.25018    | 0.25018    | 0.25018    |   0.0 |  0.07
Other   |            | 0.1627     |            |       |  0.04

Nlocal:           1075 ave        1075 max        1075 min
Histogram: 1 0 0 0 0 0 0 0 0 0
Nghost:           1894 ave        1894 max        1894 min
Histogram: 1 0 0 0 0 0 0 0 0 0
Neighs:              0 ave           0 max           0 min
Histogram: 1 0 0 0 0 0 0 0 0 0
FullNghs:        77268 ave       77268 max       77268 min
Histogram: 1 0 0 0 0 0 0 0 0 0

Total # of neighbors = 77268
Ave neighs/atom = 71.877209
Neighbor list builds = 400
Dangerous builds not checked

unfix      	depo

fix        	1coolB mobile temp/berendsen 298.0 298.0 0.1
fix        	2coolB insert temp/berendsen 298.0 298.0 0.1

run		2000
Per MPI rank memory allocation (min/avg/max) = 164.4 | 164.4 | 164.4 Mbytes
   Step        Atoms      v_nmobile      v_ninject         Temp          TotEng    
    126000        1075   957            22             594.12663     -5233.2354    
    126100        1075   957            22             516.03772     -5248.7858    
    126200        1075   957            22             467.7332      -5261.6321    
    126300        1075   957            22             431.84027     -5271.2839    
    126400        1075   957            22             425.9745      -5279.4454    
    126500        1075   957            22             393.98242     -5286.7358    
    126600        1075   957            22             383.53433     -5292.2862    
    126700        1075   957            22             363.46803     -5297.0314    
    126800        1075   957            22             349.09131     -5301.4126    
    126900        1075   957            22             355.06983     -5304.7896    
    127000        1075   957            22             337.79056     -5308.2014    
    127100        1075   957            22             340.39557     -5311.2722    
    127200        1075   957            22             336.7005      -5314.2932    
    127300        1075   957            22             328.38577     -5316.4272    
    127400        1075   957            22             320.55931     -5317.9651    
    127500        1075   957            22             325.6942      -5319.6351    
    127600        1075   957            22             324.1121      -5321.2328    
    127700        1075   957            22             326.13934     -5323.1812    
    127800        1075   957            22             309.45307     -5324.9083    
    127900        1075   957            22             314.22179     -5325.9239    
    128000        1075   957            22             306.51356     -5326.8607    
Loop time of 383.601 on 1 procs for 2000 steps with 1075 atoms

Performance: 0.225 ns/day, 106.556 hours/ns, 5.214 timesteps/s, 5.605 katom-step/s
99.7% CPU use with 1 MPI tasks x 1 OpenMP threads

MPI task timing breakdown:
Section |  min time  |  avg time  |  max time  |%varavg| %total
---------------------------------------------------------------
Pair    | 382.96     | 382.96     | 382.96     |   0.0 | 99.83
Neigh   | 0.091842   | 0.091842   | 0.091842   |   0.0 |  0.02
Comm    | 0.30119    | 0.30119    | 0.30119    |   0.0 |  0.08
Output  | 0.035283   | 0.035283   | 0.035283   |   0.0 |  0.01
Modify  | 0.17679    | 0.17679    | 0.17679    |   0.0 |  0.05
Other   |            | 0.03323    |            |       |  0.01

Nlocal:           1075 ave        1075 max        1075 min
Histogram: 1 0 0 0 0 0 0 0 0 0
Nghost:           1881 ave        1881 max        1881 min
Histogram: 1 0 0 0 0 0 0 0 0 0
Neighs:              0 ave           0 max           0 min
Histogram: 1 0 0 0 0 0 0 0 0 0
FullNghs:        77234 ave       77234 max       77234 min
Histogram: 1 0 0 0 0 0 0 0 0 0

Total # of neighbors = 77234
Ave neighs/atom = 71.845581
Neighbor list builds = 400
Dangerous builds not checked

unfix           1coolB
unfix           2coolB

delete_atoms    region del
Deleted 1 atoms, new total = 1074

next		a
jump		in_cpu.lammps loop

variable    	c equal ${c}+1
variable    	c equal 32+1
variable    	deposeed equal floor(random(1,3245,${c}))
variable    	deposeed equal floor(random(1,3245,33))

fix		depo insert deposit 1 2 1000 ${deposeed} region insert vx 0.0 0.0 vy ${vely} ${vely} vz -${velz} -${velz} units box
fix		depo insert deposit 1 2 1000 2520 region insert vx 0.0 0.0 vy ${vely} ${vely} vz -${velz} -${velz} units box
fix		depo insert deposit 1 2 1000 2520 region insert vx 0.0 0.0 vy 0 ${vely} vz -${velz} -${velz} units box
fix		depo insert deposit 1 2 1000 2520 region insert vx 0.0 0.0 vy 0 0 vz -${velz} -${velz} units box
fix		depo insert deposit 1 2 1000 2520 region insert vx 0.0 0.0 vy 0 0 vz -219.776405126004 -${velz} units box
fix		depo insert deposit 1 2 1000 2520 region insert vx 0.0 0.0 vy 0 0 vz -219.776405126004 -219.776405126004 units box

fix     	2 mobile nve
fix             3 insert nve

run		2000
Per MPI rank memory allocation (min/avg/max) = 164.2 | 164.2 | 164.2 Mbytes
   Step        Atoms      v_nmobile      v_ninject         Temp          TotEng    
    128000        1074   957            21             306.51356     -5326.8115    
    128100        1075   957            22             308.49876     -5326.7709    
    128200        1075   957            22             352.12281     -5319.0764    
    128300        1075   957            22             980.09062     -5237.3941    
    128400        1075   957            22             936.28966     -5231.1485    
    128500        1075   957            22             723.54642     -5234.1098    
    128600        1075   957            22             594.16276     -5233.1061    
    128700        1075   957            22             556.38239     -5233.37      
    128800        1075   957            22             552.34439     -5233.5074    
    128900        1075   957            22             584.23852     -5228.9093    
    129000        1074   956            22             592.81829     -5225.7558    
    129100        1074   956            22             565.93486     -5225.6713    
    129200        1074   956            22             586.00221     -5225.5296    
    129300        1074   956            22             592.8065      -5225.6903    
    129400        1074   956            22             588.53351     -5225.3967    
    129500        1074   956            22             618.56418     -5225.2855    
    129600        1074   956            22             639.02918     -5225.2846    
    129700        1074   956            22             632.94642     -5225.2859    
    129800        1074   956            22             628.99836     -5225.4167    
    129900        1074   956            22             640.17026     -5225.3691    
    130000        1074   956            22             639.34276     -5225.2266    
Loop time of 380.712 on 1 procs for 2000 steps with 1074 atoms

Performance: 0.227 ns/day, 105.753 hours/ns, 5.253 timesteps/s, 5.642 katom-step/s
99.6% CPU use with 1 MPI tasks x 1 OpenMP threads

MPI task timing breakdown:
Section |  min time  |  avg time  |  max time  |%varavg| %total
---------------------------------------------------------------
Pair    | 379.85     | 379.85     | 379.85     |   0.0 | 99.77
Neigh   | 0.090981   | 0.090981   | 0.090981   |   0.0 |  0.02
Comm    | 0.34201    | 0.34201    | 0.34201    |   0.0 |  0.09
Output  | 0.014603   | 0.014603   | 0.014603   |   0.0 |  0.00
Modify  | 0.24803    | 0.24803    | 0.24803    |   0.0 |  0.07
Other   |            | 0.1619     |            |       |  0.04

Nlocal:           1074 ave        1074 max        1074 min
Histogram: 1 0 0 0 0 0 0 0 0 0
Nghost:           1864 ave        1864 max        1864 min
Histogram: 1 0 0 0 0 0 0 0 0 0
Neighs:              0 ave           0 max           0 min
Histogram: 1 0 0 0 0 0 0 0 0 0
FullNghs:        75254 ave       75254 max       75254 min
Histogram: 1 0 0 0 0 0 0 0 0 0

Total # of neighbors = 75254
Ave neighs/atom = 70.068901
Neighbor list builds = 400
Dangerous builds not checked

unfix      	depo

fix        	1coolB mobile temp/berendsen 298.0 298.0 0.1
fix        	2coolB insert temp/berendsen 298.0 298.0 0.1

run		2000
Per MPI rank memory allocation (min/avg/max) = 164 | 164 | 164 Mbytes
   Step        Atoms      v_nmobile      v_ninject         Temp          TotEng    
    130000        1074   956            22             639.34276     -5225.2266    
    130100        1074   956            22             539.52331     -5242.9534    
    130200        1074   956            22             486.7502      -5256.6678    
    130300        1074   956            22             464.31011     -5267.5238    
    130400        1074   956            22             456.2828      -5277.3539    
    130500        1074   956            22             425.87757     -5285.5463    
    130600        1074   956            22             405.21747     -5292.0513    
    130700        1074   956            22             380.44121     -5297.5853    
    130800        1074   956            22             366.18973     -5302.0131    
    130900        1074   956            22             350.0179      -5305.7129    
    131000        1074   956            22             342.22867     -5309.3957    
    131100        1074   956            22             333.81436     -5312.1869    
    131200        1074   956            22             327.88188     -5314.4375    
    131300        1074   956            22             324.9079      -5316.7427    
    131400        1074   956            22             322.14927     -5318.2       
    131500        1074   956            22             320.35163     -5319.7522    
    131600        1074   956            22             313.2722      -5320.9604    
    131700        1074   956            22             317.58266     -5322.1931    
    131800        1074   956            22             307.81554     -5323.4709    
    131900        1074   956            22             314.1983      -5324.5152    
    132000        1074   956            22             312.174       -5325.1854    
Loop time of 379.877 on 1 procs for 2000 steps with 1074 atoms

Performance: 0.227 ns/day, 105.521 hours/ns, 5.265 timesteps/s, 5.654 katom-step/s
99.6% CPU use with 1 MPI tasks x 1 OpenMP threads

MPI task timing breakdown:
Section |  min time  |  avg time  |  max time  |%varavg| %total
---------------------------------------------------------------
Pair    | 379.22     | 379.22     | 379.22     |   0.0 | 99.83
Neigh   | 0.091014   | 0.091014   | 0.091014   |   0.0 |  0.02
Comm    | 0.30663    | 0.30663    | 0.30663    |   0.0 |  0.08
Output  | 0.041627   | 0.041627   | 0.041627   |   0.0 |  0.01
Modify  | 0.17905    | 0.17905    | 0.17905    |   0.0 |  0.05
Other   |            | 0.03397    |            |       |  0.01

Nlocal:           1074 ave        1074 max        1074 min
Histogram: 1 0 0 0 0 0 0 0 0 0
Nghost:           1870 ave        1870 max        1870 min
Histogram: 1 0 0 0 0 0 0 0 0 0
Neighs:              0 ave           0 max           0 min
Histogram: 1 0 0 0 0 0 0 0 0 0
FullNghs:        75606 ave       75606 max       75606 min
Histogram: 1 0 0 0 0 0 0 0 0 0

Total # of neighbors = 75606
Ave neighs/atom = 70.396648
Neighbor list builds = 400
Dangerous builds not checked

unfix           1coolB
unfix           2coolB

delete_atoms    region del
Deleted 0 atoms, new total = 1074

next		a
jump		in_cpu.lammps loop

variable    	c equal ${c}+1
variable    	c equal 33+1
variable    	deposeed equal floor(random(1,3245,${c}))
variable    	deposeed equal floor(random(1,3245,34))

fix		depo insert deposit 1 2 1000 ${deposeed} region insert vx 0.0 0.0 vy ${vely} ${vely} vz -${velz} -${velz} units box
fix		depo insert deposit 1 2 1000 2340 region insert vx 0.0 0.0 vy ${vely} ${vely} vz -${velz} -${velz} units box
fix		depo insert deposit 1 2 1000 2340 region insert vx 0.0 0.0 vy 0 ${vely} vz -${velz} -${velz} units box
fix		depo insert deposit 1 2 1000 2340 region insert vx 0.0 0.0 vy 0 0 vz -${velz} -${velz} units box
fix		depo insert deposit 1 2 1000 2340 region insert vx 0.0 0.0 vy 0 0 vz -219.776405126004 -${velz} units box
fix		depo insert deposit 1 2 1000 2340 region insert vx 0.0 0.0 vy 0 0 vz -219.776405126004 -219.776405126004 units box

fix     	2 mobile nve
fix             3 insert nve

run		2000
Per MPI rank memory allocation (min/avg/max) = 164 | 164 | 164 Mbytes
   Step        Atoms      v_nmobile      v_ninject         Temp          TotEng    
    132000        1074   956            22             312.174       -5325.1854    
    132100        1075   956            23             300.70201     -5325.3556    
    132200        1075   956            23             328.94        -5321.6776    
    132300        1075   956            23             942.5407      -5234.5612    
    132400        1075   956            23             899.14323     -5229.3985    
    132500        1075   956            23             730.26894     -5227.3886    
    132600        1075   956            23             641.49251     -5227.3295    
    132700        1075   956            23             589.03305     -5226.7739    
    132800        1075   956            23             584.71957     -5227.0898    
    132900        1075   956            23             605.44735     -5227.3128    
    133000        1075   956            23             605.15132     -5227.2722    
    133100        1075   956            23             619.35353     -5227.2546    
    133200        1075   956            23             595.32369     -5227.2252    
    133300        1075   956            23             617.55253     -5227.2705    
    133400        1075   956            23             613.19833     -5227.2388    
    133500        1075   956            23             582.47444     -5227.3056    
    133600        1075   956            23             597.25247     -5227.0559    
    133700        1075   956            23             594.59875     -5226.7593    
    133800        1075   956            23             605.82515     -5226.7255    
    133900        1075   956            23             612.81173     -5226.7592    
    134000        1075   956            23             615.43575     -5226.6369    
Loop time of 379.262 on 1 procs for 2000 steps with 1075 atoms

Performance: 0.228 ns/day, 105.351 hours/ns, 5.273 timesteps/s, 5.669 katom-step/s
99.7% CPU use with 1 MPI tasks x 1 OpenMP threads

MPI task timing breakdown:
Section |  min time  |  avg time  |  max time  |%varavg| %total
---------------------------------------------------------------
Pair    | 378.39     | 378.39     | 378.39     |   0.0 | 99.77
Neigh   | 0.090841   | 0.090841   | 0.090841   |   0.0 |  0.02
Comm    | 0.34803    | 0.34803    | 0.34803    |   0.0 |  0.09
Output  | 0.014681   | 0.014681   | 0.014681   |   0.0 |  0.00
Modify  | 0.25139    | 0.25139    | 0.25139    |   0.0 |  0.07
Other   |            | 0.1634     |            |       |  0.04

Nlocal:           1075 ave        1075 max        1075 min
Histogram: 1 0 0 0 0 0 0 0 0 0
Nghost:           1857 ave        1857 max        1857 min
Histogram: 1 0 0 0 0 0 0 0 0 0
Neighs:              0 ave           0 max           0 min
Histogram: 1 0 0 0 0 0 0 0 0 0
FullNghs:        74830 ave       74830 max       74830 min
Histogram: 1 0 0 0 0 0 0 0 0 0

Total # of neighbors = 74830
Ave neighs/atom = 69.609302
Neighbor list builds = 400
Dangerous builds not checked

unfix      	depo

fix        	1coolB mobile temp/berendsen 298.0 298.0 0.1
fix        	2coolB insert temp/berendsen 298.0 298.0 0.1

run		2000
Per MPI rank memory allocation (min/avg/max) = 164.1 | 164.1 | 164.1 Mbytes
   Step        Atoms      v_nmobile      v_ninject         Temp          TotEng    
    134000        1075   956            23             615.43575     -5226.6369    
    134100        1075   956            23             523.49246     -5242.8188    
    134200        1075   956            23             474.95702     -5254.926     
    134300        1075   956            23             457.30563     -5265.6684    
    134400        1075   956            23             428.53607     -5275.0919    
    134500        1075   956            23             403.2768      -5282.8826    
    134600        1075   956            23             389.51038     -5288.9475    
    134700        1075   956            23             373.0739      -5294.6359    
    134800        1075   956            23             369.03649     -5299.4501    
    134900        1075   956            23             354.55309     -5303.3845    
    135000        1075   956            23             337.91856     -5306.702     
    135100        1075   956            23             337.00421     -5309.3218    
    135200        1075   956            23             334.14        -5311.985     
    135300        1075   956            23             332.73492     -5314.0135    
    135400        1075   956            23             316.5143      -5315.2499    
    135500        1075   956            23             327.61695     -5316.6053    
    135600        1075   956            23             328.2885      -5317.9937    
    135700        1075   956            23             312.25891     -5319.3765    
    135800        1075   956            23             296.32905     -5320.211     
    135900        1075   956            23             303.36958     -5320.652     
    136000        1075   956            23             305.56376     -5321.0738    
Loop time of 378.463 on 1 procs for 2000 steps with 1075 atoms

Performance: 0.228 ns/day, 105.129 hours/ns, 5.285 timesteps/s, 5.681 katom-step/s
99.6% CPU use with 1 MPI tasks x 1 OpenMP threads

MPI task timing breakdown:
Section |  min time  |  avg time  |  max time  |%varavg| %total
---------------------------------------------------------------
Pair    | 377.84     | 377.84     | 377.84     |   0.0 | 99.83
Neigh   | 0.091135   | 0.091135   | 0.091135   |   0.0 |  0.02
Comm    | 0.30634    | 0.30634    | 0.30634    |   0.0 |  0.08
Output  | 0.017391   | 0.017391   | 0.017391   |   0.0 |  0.00
Modify  | 0.17907    | 0.17907    | 0.17907    |   0.0 |  0.05
Other   |            | 0.03398    |            |       |  0.01

Nlocal:           1075 ave        1075 max        1075 min
Histogram: 1 0 0 0 0 0 0 0 0 0
Nghost:           1877 ave        1877 max        1877 min
Histogram: 1 0 0 0 0 0 0 0 0 0
Neighs:              0 ave           0 max           0 min
Histogram: 1 0 0 0 0 0 0 0 0 0
FullNghs:        75122 ave       75122 max       75122 min
Histogram: 1 0 0 0 0 0 0 0 0 0

Total # of neighbors = 75122
Ave neighs/atom = 69.88093
Neighbor list builds = 400
Dangerous builds not checked

unfix           1coolB
unfix           2coolB

delete_atoms    region del
Deleted 0 atoms, new total = 1075

next		a
jump		in_cpu.lammps loop

variable    	c equal ${c}+1
variable    	c equal 34+1
variable    	deposeed equal floor(random(1,3245,${c}))
variable    	deposeed equal floor(random(1,3245,35))

fix		depo insert deposit 1 2 1000 ${deposeed} region insert vx 0.0 0.0 vy ${vely} ${vely} vz -${velz} -${velz} units box
fix		depo insert deposit 1 2 1000 1585 region insert vx 0.0 0.0 vy ${vely} ${vely} vz -${velz} -${velz} units box
fix		depo insert deposit 1 2 1000 1585 region insert vx 0.0 0.0 vy 0 ${vely} vz -${velz} -${velz} units box
fix		depo insert deposit 1 2 1000 1585 region insert vx 0.0 0.0 vy 0 0 vz -${velz} -${velz} units box
fix		depo insert deposit 1 2 1000 1585 region insert vx 0.0 0.0 vy 0 0 vz -219.776405126004 -${velz} units box
fix		depo insert deposit 1 2 1000 1585 region insert vx 0.0 0.0 vy 0 0 vz -219.776405126004 -219.776405126004 units box

fix     	2 mobile nve
fix             3 insert nve

run		2000
Per MPI rank memory allocation (min/avg/max) = 164.2 | 164.2 | 164.2 Mbytes
   Step        Atoms      v_nmobile      v_ninject         Temp          TotEng    
    136000        1075   956            23             305.56376     -5321.0738    
    136100        1076   956            24             304.21395     -5321.0692    
    136200        1076   956            24             327.94071     -5319.966     
    136300        1076   956            24             397.98785     -5306.6048    
    136400        1076   956            24             845.35259     -5229.742     
    136500        1076   956            24             770.74384     -5228.3692    
    136600        1076   956            24             647.42806     -5227.7787    
    136700        1076   956            24             572.63119     -5224.1789    
    136800        1076   956            24             574.89211     -5223.4166    
    136900        1076   956            24             573.78225     -5222.3479    
    137000        1076   956            24             613.71029     -5221.9689    
    137100        1076   956            24             624.04441     -5221.8339    
    137200        1076   956            24             617.25398     -5221.8248    
    137300        1076   956            24             617.75628     -5222.1636    
    137400        1076   956            24             600.94628     -5222.2561    
    137500        1076   956            24             610.89777     -5222.4392    
    137600        1076   956            24             585.21751     -5222.7951    
    137700        1076   956            24             602.20664     -5222.5666    
    137800        1076   956            24             610.24578     -5221.9543    
    137900        1076   956            24             610.69256     -5222.1282    
    138000        1076   956            24             599.28052     -5222.1941    
Loop time of 378.749 on 1 procs for 2000 steps with 1076 atoms

Performance: 0.228 ns/day, 105.208 hours/ns, 5.281 timesteps/s, 5.682 katom-step/s
99.6% CPU use with 1 MPI tasks x 1 OpenMP threads

MPI task timing breakdown:
Section |  min time  |  avg time  |  max time  |%varavg| %total
---------------------------------------------------------------
Pair    | 377.88     | 377.88     | 377.88     |   0.0 | 99.77
Neigh   | 0.091925   | 0.091925   | 0.091925   |   0.0 |  0.02
Comm    | 0.34794    | 0.34794    | 0.34794    |   0.0 |  0.09
Output  | 0.014929   | 0.014929   | 0.014929   |   0.0 |  0.00
Modify  | 0.25121    | 0.25121    | 0.25121    |   0.0 |  0.07
Other   |            | 0.1636     |            |       |  0.04

Nlocal:           1076 ave        1076 max        1076 min
Histogram: 1 0 0 0 0 0 0 0 0 0
Nghost:           1856 ave        1856 max        1856 min
Histogram: 1 0 0 0 0 0 0 0 0 0
Neighs:              0 ave           0 max           0 min
Histogram: 1 0 0 0 0 0 0 0 0 0
FullNghs:        74532 ave       74532 max       74532 min
Histogram: 1 0 0 0 0 0 0 0 0 0

Total # of neighbors = 74532
Ave neighs/atom = 69.267658
Neighbor list builds = 400
Dangerous builds not checked

unfix      	depo

fix        	1coolB mobile temp/berendsen 298.0 298.0 0.1
fix        	2coolB insert temp/berendsen 298.0 298.0 0.1

run		2000
Per MPI rank memory allocation (min/avg/max) = 164.2 | 164.2 | 164.2 Mbytes
   Step        Atoms      v_nmobile      v_ninject         Temp          TotEng    
    138000        1076   956            24             599.28052     -5222.1941    
    138100        1076   956            24             516.66066     -5238.0624    
    138200        1076   956            24             480.95198     -5250.5613    
    138300        1076   956            24             460.35351     -5261.7213    
    138400        1076   956            24             412.31982     -5270.9448    
    138500        1076   956            24             410.77056     -5278.0238    
    138600        1076   956            24             395.84007     -5284.8285    
    138700        1076   956            24             375.91652     -5290.2394    
    138800        1076   956            24             363.15003     -5294.6512    
    138900        1076   956            24             358.01184     -5298.6013    
    139000        1076   956            24             327.81582     -5301.611     
    139100        1076   956            24             335.78162     -5304.156     
    139200        1076   956            24             325.39642     -5306.2958    
    139300        1076   956            24             330.41233     -5308.0856    
    139400        1076   956            24             331.93321     -5309.9453    
    139500        1076   956            24             317.09522     -5311.4187    
    139600        1076   956            24             308.85857     -5312.4766    
    139700        1076   956            24             314.96624     -5313.2586    
    139800        1076   956            24             329.07974     -5314.7738    
    139900        1076   956            24             304.92986     -5315.5465    
    140000        1076   956            24             305.77482     -5315.8466    
Loop time of 378.687 on 1 procs for 2000 steps with 1076 atoms

Performance: 0.228 ns/day, 105.191 hours/ns, 5.281 timesteps/s, 5.683 katom-step/s
99.6% CPU use with 1 MPI tasks x 1 OpenMP threads

MPI task timing breakdown:
Section |  min time  |  avg time  |  max time  |%varavg| %total
---------------------------------------------------------------
Pair    | 378.06     | 378.06     | 378.06     |   0.0 | 99.83
Neigh   | 0.091576   | 0.091576   | 0.091576   |   0.0 |  0.02
Comm    | 0.30497    | 0.30497    | 0.30497    |   0.0 |  0.08
Output  | 0.017239   | 0.017239   | 0.017239   |   0.0 |  0.00
Modify  | 0.17792    | 0.17792    | 0.17792    |   0.0 |  0.05
Other   |            | 0.03377    |            |       |  0.01

Nlocal:           1076 ave        1076 max        1076 min
Histogram: 1 0 0 0 0 0 0 0 0 0
Nghost:           1869 ave        1869 max        1869 min
Histogram: 1 0 0 0 0 0 0 0 0 0
Neighs:              0 ave           0 max           0 min
Histogram: 1 0 0 0 0 0 0 0 0 0
FullNghs:        75538 ave       75538 max       75538 min
Histogram: 1 0 0 0 0 0 0 0 0 0

Total # of neighbors = 75538
Ave neighs/atom = 70.202602
Neighbor list builds = 400
Dangerous builds not checked

unfix           1coolB
unfix           2coolB

delete_atoms    region del
Deleted 0 atoms, new total = 1076

next		a
jump		in_cpu.lammps loop

variable    	c equal ${c}+1
variable    	c equal 35+1
variable    	deposeed equal floor(random(1,3245,${c}))
variable    	deposeed equal floor(random(1,3245,36))

fix		depo insert deposit 1 2 1000 ${deposeed} region insert vx 0.0 0.0 vy ${vely} ${vely} vz -${velz} -${velz} units box
fix		depo insert deposit 1 2 1000 680 region insert vx 0.0 0.0 vy ${vely} ${vely} vz -${velz} -${velz} units box
fix		depo insert deposit 1 2 1000 680 region insert vx 0.0 0.0 vy 0 ${vely} vz -${velz} -${velz} units box
fix		depo insert deposit 1 2 1000 680 region insert vx 0.0 0.0 vy 0 0 vz -${velz} -${velz} units box
fix		depo insert deposit 1 2 1000 680 region insert vx 0.0 0.0 vy 0 0 vz -219.776405126004 -${velz} units box
fix		depo insert deposit 1 2 1000 680 region insert vx 0.0 0.0 vy 0 0 vz -219.776405126004 -219.776405126004 units box

fix     	2 mobile nve
fix             3 insert nve

run		2000
Per MPI rank memory allocation (min/avg/max) = 164.3 | 164.3 | 164.3 Mbytes
   Step        Atoms      v_nmobile      v_ninject         Temp          TotEng    
    140000        1076   956            24             305.77482     -5315.8466    
    140100        1077   956            25             308.5115      -5316.0199    
    140200        1077   956            25             325.96076     -5310.802     
    140300        1077   956            25             438.33594     -5294.8303    
    140400        1077   956            25             454.85068     -5283.6855    
    140500        1077   956            25             565.48223     -5266.1533    
    140600        1077   956            25             776.94971     -5219.5662    
    140700        1077   956            25             669.57731     -5219.777     
    140800        1077   956            25             634.17468     -5220.2133    
    140900        1077   956            25             598.99033     -5219.2714    
    141000        1077   956            25             603.85985     -5219.5397    
    141100        1077   956            25             591.77507     -5219.8429    
    141200        1076   956            24             581.64595     -5220.0621    
    141300        1076   956            24             619.9701      -5220.2658    
    141400        1076   956            24             606.16646     -5220.2241    
    141500        1076   956            24             560.10092     -5220.1358    
    141600        1076   956            24             580.03441     -5220.0965    
    141700        1076   956            24             602.46536     -5219.969     
    141800        1076   956            24             615.17656     -5219.7023    
    141900        1076   956            24             617.0528      -5219.788     
    142000        1076   956            24             619.51849     -5220.3497    
Loop time of 379.174 on 1 procs for 2000 steps with 1076 atoms

Performance: 0.228 ns/day, 105.326 hours/ns, 5.275 timesteps/s, 5.675 katom-step/s
99.6% CPU use with 1 MPI tasks x 1 OpenMP threads

MPI task timing breakdown:
Section |  min time  |  avg time  |  max time  |%varavg| %total
---------------------------------------------------------------
Pair    | 378.3      | 378.3      | 378.3      |   0.0 | 99.77
Neigh   | 0.092867   | 0.092867   | 0.092867   |   0.0 |  0.02
Comm    | 0.34808    | 0.34808    | 0.34808    |   0.0 |  0.09
Output  | 0.017625   | 0.017625   | 0.017625   |   0.0 |  0.00
Modify  | 0.25152    | 0.25152    | 0.25152    |   0.0 |  0.07
Other   |            | 0.1634     |            |       |  0.04

Nlocal:           1076 ave        1076 max        1076 min
Histogram: 1 0 0 0 0 0 0 0 0 0
Nghost:           1853 ave        1853 max        1853 min
Histogram: 1 0 0 0 0 0 0 0 0 0
Neighs:              0 ave           0 max           0 min
Histogram: 1 0 0 0 0 0 0 0 0 0
FullNghs:        75152 ave       75152 max       75152 min
Histogram: 1 0 0 0 0 0 0 0 0 0

Total # of neighbors = 75152
Ave neighs/atom = 69.843866
Neighbor list builds = 400
Dangerous builds not checked

unfix      	depo

fix        	1coolB mobile temp/berendsen 298.0 298.0 0.1
fix        	2coolB insert temp/berendsen 298.0 298.0 0.1

run		2000
Per MPI rank memory allocation (min/avg/max) = 164.2 | 164.2 | 164.2 Mbytes
   Step        Atoms      v_nmobile      v_ninject         Temp          TotEng    
    142000        1076   956            24             619.51849     -5220.3497    
    142100        1076   956            24             507.77376     -5235.9809    
    142200        1076   956            24             470.61729     -5248.6888    
    142300        1076   956            24             452.5103      -5259.3361    
    142400        1076   956            24             429.54773     -5267.52      
    142500        1076   956            24             420.61424     -5275.5686    
    142600        1076   956            24             389.06164     -5282.7117    
    142700        1076   956            24             372.07192     -5288.0289    
    142800        1076   956            24             363.27419     -5292.5989    
    142900        1076   956            24             353.21658     -5296.8138    
    143000        1076   956            24             351.07923     -5300.2206    
    143100        1076   956            24             328.4275      -5303.029     
    143200        1076   956            24             318.20798     -5304.9013    
    143300        1076   956            24             342.69958     -5306.6617    
    143400        1076   956            24             336.50855     -5309.1458    
    143500        1076   956            24             322.74842     -5311.0945    
    143600        1076   956            24             326.95866     -5312.368     
    143700        1076   956            24             319.34503     -5313.7445    
    143800        1076   956            24             320.43754     -5315.3914    
    143900        1076   956            24             315.37879     -5316.7993    
    144000        1076   956            24             315.0783      -5317.7491    
Loop time of 378.34 on 1 procs for 2000 steps with 1076 atoms

Performance: 0.228 ns/day, 105.094 hours/ns, 5.286 timesteps/s, 5.688 katom-step/s
99.6% CPU use with 1 MPI tasks x 1 OpenMP threads

MPI task timing breakdown:
Section |  min time  |  avg time  |  max time  |%varavg| %total
---------------------------------------------------------------
Pair    | 377.69     | 377.69     | 377.69     |   0.0 | 99.83
Neigh   | 0.091553   | 0.091553   | 0.091553   |   0.0 |  0.02
Comm    | 0.30652    | 0.30652    | 0.30652    |   0.0 |  0.08
Output  | 0.041515   | 0.041515   | 0.041515   |   0.0 |  0.01
Modify  | 0.18064    | 0.18064    | 0.18064    |   0.0 |  0.05
Other   |            | 0.03404    |            |       |  0.01

Nlocal:           1076 ave        1076 max        1076 min
Histogram: 1 0 0 0 0 0 0 0 0 0
Nghost:           1872 ave        1872 max        1872 min
Histogram: 1 0 0 0 0 0 0 0 0 0
Neighs:              0 ave           0 max           0 min
Histogram: 1 0 0 0 0 0 0 0 0 0
FullNghs:        74580 ave       74580 max       74580 min
Histogram: 1 0 0 0 0 0 0 0 0 0

Total # of neighbors = 74580
Ave neighs/atom = 69.312268
Neighbor list builds = 400
Dangerous builds not checked

unfix           1coolB
unfix           2coolB

delete_atoms    region del
Deleted 0 atoms, new total = 1076

next		a
jump		in_cpu.lammps loop

variable    	c equal ${c}+1
variable    	c equal 36+1
variable    	deposeed equal floor(random(1,3245,${c}))
variable    	deposeed equal floor(random(1,3245,37))

fix		depo insert deposit 1 2 1000 ${deposeed} region insert vx 0.0 0.0 vy ${vely} ${vely} vz -${velz} -${velz} units box
fix		depo insert deposit 1 2 1000 153 region insert vx 0.0 0.0 vy ${vely} ${vely} vz -${velz} -${velz} units box
fix		depo insert deposit 1 2 1000 153 region insert vx 0.0 0.0 vy 0 ${vely} vz -${velz} -${velz} units box
fix		depo insert deposit 1 2 1000 153 region insert vx 0.0 0.0 vy 0 0 vz -${velz} -${velz} units box
fix		depo insert deposit 1 2 1000 153 region insert vx 0.0 0.0 vy 0 0 vz -219.776405126004 -${velz} units box
fix		depo insert deposit 1 2 1000 153 region insert vx 0.0 0.0 vy 0 0 vz -219.776405126004 -219.776405126004 units box

fix     	2 mobile nve
fix             3 insert nve

run		2000
Per MPI rank memory allocation (min/avg/max) = 164.3 | 164.3 | 164.3 Mbytes
   Step        Atoms      v_nmobile      v_ninject         Temp          TotEng    
    144000        1076   956            24             315.0783      -5317.7491    
    144100        1077   956            25             313.01484     -5317.795     
    144200        1077   956            25             410.74637     -5304.665     
    144300        1077   956            25             385.08679     -5304.7363    
    144400        1077   956            25             643.95382     -5265.695     
    144500        1077   956            25             697.99436     -5244.7845    
    144600        1077   956            25             598.99446     -5241.5511    
    144700        1077   956            25             520.29853     -5240.3389    
    144800        1076   956            24             533.50379     -5240.5352    
    144900        1076   956            24             540.9652      -5240.4081    
    145000        1076   956            24             564.03132     -5240.3151    
    145100        1076   956            24             544.08347     -5240.67      
    145200        1076   956            24             519.26467     -5241.0536    
    145300        1076   956            24             528.49545     -5241.6205    
    145400        1076   956            24             517.69037     -5241.7266    
    145500        1076   956            24             522.64441     -5241.2689    
    145600        1076   956            24             543.74185     -5240.9384    
    145700        1076   956            24             552.92018     -5240.7001    
    145800        1076   956            24             541.3013      -5240.7816    
    145900        1076   956            24             542.92552     -5240.584     
    146000        1076   956            24             553.56264     -5240.605     
Loop time of 376.602 on 1 procs for 2000 steps with 1076 atoms

Performance: 0.229 ns/day, 104.612 hours/ns, 5.311 timesteps/s, 5.714 katom-step/s
99.7% CPU use with 1 MPI tasks x 1 OpenMP threads

MPI task timing breakdown:
Section |  min time  |  avg time  |  max time  |%varavg| %total
---------------------------------------------------------------
Pair    | 375.73     | 375.73     | 375.73     |   0.0 | 99.77
Neigh   | 0.090716   | 0.090716   | 0.090716   |   0.0 |  0.02
Comm    | 0.34816    | 0.34816    | 0.34816    |   0.0 |  0.09
Output  | 0.014442   | 0.014442   | 0.014442   |   0.0 |  0.00
Modify  | 0.25141    | 0.25141    | 0.25141    |   0.0 |  0.07
Other   |            | 0.1635     |            |       |  0.04

Nlocal:           1076 ave        1076 max        1076 min
Histogram: 1 0 0 0 0 0 0 0 0 0
Nghost:           1833 ave        1833 max        1833 min
Histogram: 1 0 0 0 0 0 0 0 0 0
Neighs:              0 ave           0 max           0 min
Histogram: 1 0 0 0 0 0 0 0 0 0
FullNghs:        73216 ave       73216 max       73216 min
Histogram: 1 0 0 0 0 0 0 0 0 0

Total # of neighbors = 73216
Ave neighs/atom = 68.04461
Neighbor list builds = 400
Dangerous builds not checked

unfix      	depo

fix        	1coolB mobile temp/berendsen 298.0 298.0 0.1
fix        	2coolB insert temp/berendsen 298.0 298.0 0.1

run		2000
Per MPI rank memory allocation (min/avg/max) = 164.3 | 164.3 | 164.3 Mbytes
   Step        Atoms      v_nmobile      v_ninject         Temp          TotEng    
    146000        1076   956            24             553.56264     -5240.605     
    146100        1076   956            24             467.98109     -5253.0621    
    146200        1076   956            24             444.57734     -5263.6596    
    146300        1076   956            24             432.41911     -5273.0931    
    146400        1076   956            24             404.83833     -5280.2911    
    146500        1076   956            24             390.0508      -5285.9198    
    146600        1076   956            24             373.16529     -5291.0223    
    146700        1076   956            24             364.41054     -5295.5298    
    146800        1076   956            24             335.39844     -5298.8698    
    146900        1076   956            24             324.64294     -5301.3132    
    147000        1076   956            24             330.2486      -5303.4092    
    147100        1076   956            24             327.37899     -5305.7352    
    147200        1076   956            24             324.86767     -5307.4927    
    147300        1076   956            24             320.1246      -5309.3253    
    147400        1076   956            24             328.46342     -5310.8051    
    147500        1076   956            24             323.96306     -5312.1179    
    147600        1076   956            24             315.04908     -5313.4449    
    147700        1076   956            24             303.28787     -5314.3715    
    147800        1076   956            24             309.98584     -5314.7476    
    147900        1076   956            24             308.2604      -5315.5148    
    148000        1076   956            24             309.95679     -5316.5185    
Loop time of 375.084 on 1 procs for 2000 steps with 1076 atoms

Performance: 0.230 ns/day, 104.190 hours/ns, 5.332 timesteps/s, 5.737 katom-step/s
99.7% CPU use with 1 MPI tasks x 1 OpenMP threads

MPI task timing breakdown:
Section |  min time  |  avg time  |  max time  |%varavg| %total
---------------------------------------------------------------
Pair    | 374.46     | 374.46     | 374.46     |   0.0 | 99.83
Neigh   | 0.090499   | 0.090499   | 0.090499   |   0.0 |  0.02
Comm    | 0.30666    | 0.30666    | 0.30666    |   0.0 |  0.08
Output  | 0.017333   | 0.017333   | 0.017333   |   0.0 |  0.00
Modify  | 0.17911    | 0.17911    | 0.17911    |   0.0 |  0.05
Other   |            | 0.03405    |            |       |  0.01

Nlocal:           1076 ave        1076 max        1076 min
Histogram: 1 0 0 0 0 0 0 0 0 0
Nghost:           1855 ave        1855 max        1855 min
Histogram: 1 0 0 0 0 0 0 0 0 0
Neighs:              0 ave           0 max           0 min
Histogram: 1 0 0 0 0 0 0 0 0 0
FullNghs:        73916 ave       73916 max       73916 min
Histogram: 1 0 0 0 0 0 0 0 0 0

Total # of neighbors = 73916
Ave neighs/atom = 68.695167
Neighbor list builds = 400
Dangerous builds not checked

unfix           1coolB
unfix           2coolB

delete_atoms    region del
Deleted 0 atoms, new total = 1076

next		a
jump		in_cpu.lammps loop

variable    	c equal ${c}+1
variable    	c equal 37+1
variable    	deposeed equal floor(random(1,3245,${c}))
variable    	deposeed equal floor(random(1,3245,38))

fix		depo insert deposit 1 2 1000 ${deposeed} region insert vx 0.0 0.0 vy ${vely} ${vely} vz -${velz} -${velz} units box
fix		depo insert deposit 1 2 1000 3111 region insert vx 0.0 0.0 vy ${vely} ${vely} vz -${velz} -${velz} units box
fix		depo insert deposit 1 2 1000 3111 region insert vx 0.0 0.0 vy 0 ${vely} vz -${velz} -${velz} units box
fix		depo insert deposit 1 2 1000 3111 region insert vx 0.0 0.0 vy 0 0 vz -${velz} -${velz} units box
fix		depo insert deposit 1 2 1000 3111 region insert vx 0.0 0.0 vy 0 0 vz -219.776405126004 -${velz} units box
fix		depo insert deposit 1 2 1000 3111 region insert vx 0.0 0.0 vy 0 0 vz -219.776405126004 -219.776405126004 units box

fix     	2 mobile nve
fix             3 insert nve

run		2000
Per MPI rank memory allocation (min/avg/max) = 164.3 | 164.3 | 164.3 Mbytes
   Step        Atoms      v_nmobile      v_ninject         Temp          TotEng    
    148000        1076   956            24             309.95679     -5316.5185    
    148100        1077   956            25             312.38337     -5316.8136    
    148200        1077   956            25             707.76525     -5236.4829    
    148300        1077   956            25             845.28564     -5220.3116    
    148400        1077   956            25             665.10551     -5220.3897    
    148500        1077   956            25             589.47152     -5219.0431    
    148600        1077   956            25             599.22428     -5218.8962    
    148700        1077   956            25             602.08823     -5218.9088    
    148800        1077   956            25             583.44816     -5219.0646    
    148900        1077   956            25             610.27378     -5217.7998    
    149000        1077   956            25             588.58192     -5217.8466    
    149100        1077   956            25             613.86386     -5217.8766    
    149200        1077   956            25             611.07025     -5217.3865    
    149300        1077   956            25             613.24692     -5217.3731    
    149400        1077   956            25             613.53833     -5217.6914    
    149500        1077   956            25             634.19899     -5217.5793    
    149600        1077   956            25             606.76962     -5217.7961    
    149700        1077   956            25             611.96628     -5217.9075    
    149800        1077   956            25             631.14658     -5217.7567    
    149900        1077   956            25             628.17861     -5217.6153    
    150000        1077   956            25             627.20549     -5217.1858    
Loop time of 377.677 on 1 procs for 2000 steps with 1077 atoms

Performance: 0.229 ns/day, 104.910 hours/ns, 5.296 timesteps/s, 5.703 katom-step/s
99.7% CPU use with 1 MPI tasks x 1 OpenMP threads

MPI task timing breakdown:
Section |  min time  |  avg time  |  max time  |%varavg| %total
---------------------------------------------------------------
Pair    | 376.81     | 376.81     | 376.81     |   0.0 | 99.77
Neigh   | 0.090883   | 0.090883   | 0.090883   |   0.0 |  0.02
Comm    | 0.34707    | 0.34707    | 0.34707    |   0.0 |  0.09
Output  | 0.014594   | 0.014594   | 0.014594   |   0.0 |  0.00
Modify  | 0.2513     | 0.2513     | 0.2513     |   0.0 |  0.07
Other   |            | 0.1633     |            |       |  0.04

Nlocal:           1077 ave        1077 max        1077 min
Histogram: 1 0 0 0 0 0 0 0 0 0
Nghost:           1853 ave        1853 max        1853 min
Histogram: 1 0 0 0 0 0 0 0 0 0
Neighs:              0 ave           0 max           0 min
Histogram: 1 0 0 0 0 0 0 0 0 0
FullNghs:        75920 ave       75920 max       75920 min
Histogram: 1 0 0 0 0 0 0 0 0 0

Total # of neighbors = 75920
Ave neighs/atom = 70.492108
Neighbor list builds = 400
Dangerous builds not checked

unfix      	depo

fix        	1coolB mobile temp/berendsen 298.0 298.0 0.1
fix        	2coolB insert temp/berendsen 298.0 298.0 0.1

run		2000
Per MPI rank memory allocation (min/avg/max) = 164.3 | 164.3 | 164.3 Mbytes
   Step        Atoms      v_nmobile      v_ninject         Temp          TotEng    
    150000        1077   956            25             627.20549     -5217.1858    
    150100        1077   956            25             527.21983     -5233.6691    
    150200        1077   956            25             494.94651     -5246.9267    
    150300        1077   956            25             455.46396     -5258.0935    
    150400        1077   956            25             422.21066     -5267.4841    
    150500        1077   956            25             391.98435     -5274.5967    
    150600        1077   956            25             376.93092     -5280.0485    
    150700        1077   956            25             367.95184     -5284.2327    
    150800        1077   956            25             351.32274     -5288.0027    
    150900        1077   956            25             355.02764     -5291.161     
    151000        1077   956            25             327.77478     -5293.7616    
    151100        1077   956            25             317.92266     -5295.7169    
    151200        1077   956            25             321.80193     -5297.8999    
    151300        1077   956            25             324.65056     -5299.9108    
    151400        1077   956            25             321.78239     -5301.1306    
    151500        1077   956            25             313.48935     -5302.4242    
    151600        1077   956            25             309.69436     -5303.269     
    151700        1077   956            25             319.98069     -5303.8685    
    151800        1077   956            25             319.15985     -5305.3121    
    151900        1077   956            25             305.22521     -5306.0897    
    152000        1077   956            25             302.76006     -5306.0835    
Loop time of 379.181 on 1 procs for 2000 steps with 1077 atoms

Performance: 0.228 ns/day, 105.328 hours/ns, 5.275 timesteps/s, 5.681 katom-step/s
99.6% CPU use with 1 MPI tasks x 1 OpenMP threads

MPI task timing breakdown:
Section |  min time  |  avg time  |  max time  |%varavg| %total
---------------------------------------------------------------
Pair    | 378.55     | 378.55     | 378.55     |   0.0 | 99.83
Neigh   | 0.091202   | 0.091202   | 0.091202   |   0.0 |  0.02
Comm    | 0.30479    | 0.30479    | 0.30479    |   0.0 |  0.08
Output  | 0.019833   | 0.019833   | 0.019833   |   0.0 |  0.01
Modify  | 0.17833    | 0.17833    | 0.17833    |   0.0 |  0.05
Other   |            | 0.03372    |            |       |  0.01

Nlocal:           1077 ave        1077 max        1077 min
Histogram: 1 0 0 0 0 0 0 0 0 0
Nghost:           1863 ave        1863 max        1863 min
Histogram: 1 0 0 0 0 0 0 0 0 0
Neighs:              0 ave           0 max           0 min
Histogram: 1 0 0 0 0 0 0 0 0 0
FullNghs:        75414 ave       75414 max       75414 min
Histogram: 1 0 0 0 0 0 0 0 0 0

Total # of neighbors = 75414
Ave neighs/atom = 70.022284
Neighbor list builds = 400
Dangerous builds not checked

unfix           1coolB
unfix           2coolB

delete_atoms    region del
Deleted 0 atoms, new total = 1077

next		a
jump		in_cpu.lammps loop

variable    	c equal ${c}+1
variable    	c equal 38+1
variable    	deposeed equal floor(random(1,3245,${c}))
variable    	deposeed equal floor(random(1,3245,39))

fix		depo insert deposit 1 2 1000 ${deposeed} region insert vx 0.0 0.0 vy ${vely} ${vely} vz -${velz} -${velz} units box
fix		depo insert deposit 1 2 1000 1169 region insert vx 0.0 0.0 vy ${vely} ${vely} vz -${velz} -${velz} units box
fix		depo insert deposit 1 2 1000 1169 region insert vx 0.0 0.0 vy 0 ${vely} vz -${velz} -${velz} units box
fix		depo insert deposit 1 2 1000 1169 region insert vx 0.0 0.0 vy 0 0 vz -${velz} -${velz} units box
fix		depo insert deposit 1 2 1000 1169 region insert vx 0.0 0.0 vy 0 0 vz -219.776405126004 -${velz} units box
fix		depo insert deposit 1 2 1000 1169 region insert vx 0.0 0.0 vy 0 0 vz -219.776405126004 -219.776405126004 units box

fix     	2 mobile nve
fix             3 insert nve

run		2000
Per MPI rank memory allocation (min/avg/max) = 164.3 | 164.3 | 164.3 Mbytes
   Step        Atoms      v_nmobile      v_ninject         Temp          TotEng    
    152000        1077   956            25             302.76006     -5306.0835    
    152100        1078   956            26             306.30308     -5306.0707    
    152200        1078   956            26             880.61305     -5218.7937    
    152300        1078   956            26             805.33232     -5217.712     
    152400        1078   956            26             703.79779     -5215.8347    
    152500        1078   956            26             679.34613     -5210.6582    
    152600        1078   956            26             633.75424     -5208.5416    
    152700        1078   956            26             631.81967     -5208.555     
    152800        1078   956            26             635.4672      -5207.9251    
    152900        1078   956            26             637.11826     -5207.3215    
    153000        1078   956            26             637.03103     -5206.8324    
    153100        1078   956            26             635.23149     -5206.8998    
    153200        1078   956            26             627.14567     -5206.943     
    153300        1078   956            26             630.38946     -5206.6372    
    153400        1078   956            26             629.62462     -5206.5879    
    153500        1078   956            26             659.49822     -5206.5709    
    153600        1078   956            26             649.61467     -5207.1496    
    153700        1078   956            26             663.73506     -5207.1538    
    153800        1078   956            26             686.23755     -5206.8722    
    153900        1078   956            26             674.0276      -5206.6484    
    154000        1078   956            26             641.11279     -5207.0151    
Loop time of 379.131 on 1 procs for 2000 steps with 1078 atoms

Performance: 0.228 ns/day, 105.314 hours/ns, 5.275 timesteps/s, 5.687 katom-step/s
99.6% CPU use with 1 MPI tasks x 1 OpenMP threads

MPI task timing breakdown:
Section |  min time  |  avg time  |  max time  |%varavg| %total
---------------------------------------------------------------
Pair    | 378.26     | 378.26     | 378.26     |   0.0 | 99.77
Neigh   | 0.091524   | 0.091524   | 0.091524   |   0.0 |  0.02
Comm    | 0.34805    | 0.34805    | 0.34805    |   0.0 |  0.09
Output  | 0.014997   | 0.014997   | 0.014997   |   0.0 |  0.00
Modify  | 0.25163    | 0.25163    | 0.25163    |   0.0 |  0.07
Other   |            | 0.1636     |            |       |  0.04

Nlocal:           1078 ave        1078 max        1078 min
Histogram: 1 0 0 0 0 0 0 0 0 0
Nghost:           1869 ave        1869 max        1869 min
Histogram: 1 0 0 0 0 0 0 0 0 0
Neighs:              0 ave           0 max           0 min
Histogram: 1 0 0 0 0 0 0 0 0 0
FullNghs:        76022 ave       76022 max       76022 min
Histogram: 1 0 0 0 0 0 0 0 0 0

Total # of neighbors = 76022
Ave neighs/atom = 70.521336
Neighbor list builds = 400
Dangerous builds not checked

unfix      	depo

fix        	1coolB mobile temp/berendsen 298.0 298.0 0.1
fix        	2coolB insert temp/berendsen 298.0 298.0 0.1

run		2000
Per MPI rank memory allocation (min/avg/max) = 164.5 | 164.5 | 164.5 Mbytes
   Step        Atoms      v_nmobile      v_ninject         Temp          TotEng    
    154000        1078   956            26             641.11279     -5207.0151    
    154100        1078   956            26             557.55082     -5225.289     
    154200        1078   956            26             486.12199     -5239.4343    
    154300        1078   956            26             454.51582     -5250.5132    
    154400        1078   956            26             429.75392     -5259.4663    
    154500        1078   956            26             409.33945     -5267.3187    
    154600        1078   956            26             387.20234     -5273.6414    
    154700        1078   956            26             362.91043     -5278.3411    
    154800        1078   956            26             358.98817     -5281.8455    
    154900        1078   956            26             349.41521     -5285.3629    
    155000        1078   956            26             339.87388     -5287.7766    
    155100        1078   956            26             342.96482     -5290.5725    
    155200        1078   956            26             323.94863     -5292.8977    
    155300        1078   956            26             321.96481     -5294.5204    
    155400        1078   956            26             318.80911     -5295.883     
    155500        1078   956            26             317.92663     -5296.855     
    155600        1078   956            26             318.55101     -5298.0036    
    155700        1078   956            26             320.20042     -5299.241     
    155800        1078   956            26             320.41311     -5300.457     
    155900        1078   956            26             310.96588     -5301.4579    
    156000        1078   956            26             302.78796     -5301.8707    
Loop time of 380.663 on 1 procs for 2000 steps with 1078 atoms

Performance: 0.227 ns/day, 105.740 hours/ns, 5.254 timesteps/s, 5.664 katom-step/s
99.7% CPU use with 1 MPI tasks x 1 OpenMP threads

MPI task timing breakdown:
Section |  min time  |  avg time  |  max time  |%varavg| %total
---------------------------------------------------------------
Pair    | 380.03     | 380.03     | 380.03     |   0.0 | 99.83
Neigh   | 0.091604   | 0.091604   | 0.091604   |   0.0 |  0.02
Comm    | 0.30679    | 0.30679    | 0.30679    |   0.0 |  0.08
Output  | 0.018242   | 0.018242   | 0.018242   |   0.0 |  0.00
Modify  | 0.17906    | 0.17906    | 0.17906    |   0.0 |  0.05
Other   |            | 0.03396    |            |       |  0.01

Nlocal:           1078 ave        1078 max        1078 min
Histogram: 1 0 0 0 0 0 0 0 0 0
Nghost:           1870 ave        1870 max        1870 min
Histogram: 1 0 0 0 0 0 0 0 0 0
Neighs:              0 ave           0 max           0 min
Histogram: 1 0 0 0 0 0 0 0 0 0
FullNghs:        76038 ave       76038 max       76038 min
Histogram: 1 0 0 0 0 0 0 0 0 0

Total # of neighbors = 76038
Ave neighs/atom = 70.536178
Neighbor list builds = 400
Dangerous builds not checked

unfix           1coolB
unfix           2coolB

delete_atoms    region del
Deleted 0 atoms, new total = 1078

next		a
jump		in_cpu.lammps loop

variable    	c equal ${c}+1
variable    	c equal 39+1
variable    	deposeed equal floor(random(1,3245,${c}))
variable    	deposeed equal floor(random(1,3245,40))

fix		depo insert deposit 1 2 1000 ${deposeed} region insert vx 0.0 0.0 vy ${vely} ${vely} vz -${velz} -${velz} units box
fix		depo insert deposit 1 2 1000 799 region insert vx 0.0 0.0 vy ${vely} ${vely} vz -${velz} -${velz} units box
fix		depo insert deposit 1 2 1000 799 region insert vx 0.0 0.0 vy 0 ${vely} vz -${velz} -${velz} units box
fix		depo insert deposit 1 2 1000 799 region insert vx 0.0 0.0 vy 0 0 vz -${velz} -${velz} units box
fix		depo insert deposit 1 2 1000 799 region insert vx 0.0 0.0 vy 0 0 vz -219.776405126004 -${velz} units box
fix		depo insert deposit 1 2 1000 799 region insert vx 0.0 0.0 vy 0 0 vz -219.776405126004 -219.776405126004 units box

fix     	2 mobile nve
fix             3 insert nve

run		2000
Per MPI rank memory allocation (min/avg/max) = 164.7 | 164.7 | 164.7 Mbytes
   Step        Atoms      v_nmobile      v_ninject         Temp          TotEng    
    156000        1078   956            26             302.78796     -5301.8707    
    156100        1079   956            27             308.70802     -5302.0941    
    156200        1079   956            27             379.44286     -5282.0891    
    156300        1079   956            27             402.20301     -5281.7386    
    156400        1079   956            27             695.82438     -5242.0325    
    156500        1079   956            27             638.10195     -5240.3419    
    156600        1079   956            27             579.50675     -5229.7621    
    156700        1079   956            27             496.06332     -5231.2554    
    156800        1078   956            26             498.31378     -5229.0128    
    156900        1078   956            26             527.26366     -5228.1057    
    157000        1078   956            26             526.97341     -5227.7231    
    157100        1078   956            26             521.01483     -5227.8149    
    157200        1078   956            26             547.5214      -5228.0228    
    157300        1078   956            26             553.37556     -5226.4401    
    157400        1078   956            26             552.80195     -5226.3989    
    157500        1078   956            26             542.72192     -5224.4124    
    157600        1078   956            26             549.94775     -5225.9324    
    157700        1078   956            26             562.63065     -5224.7734    
    157800        1078   956            26             584.06596     -5225.172     
    157900        1078   956            26             584.25603     -5225.1082    
    158000        1078   956            26             579.33382     -5224.3901    
Loop time of 380.062 on 1 procs for 2000 steps with 1078 atoms

Performance: 0.227 ns/day, 105.573 hours/ns, 5.262 timesteps/s, 5.673 katom-step/s
99.7% CPU use with 1 MPI tasks x 1 OpenMP threads

MPI task timing breakdown:
Section |  min time  |  avg time  |  max time  |%varavg| %total
---------------------------------------------------------------
Pair    | 379.19     | 379.19     | 379.19     |   0.0 | 99.77
Neigh   | 0.092007   | 0.092007   | 0.092007   |   0.0 |  0.02
Comm    | 0.34818    | 0.34818    | 0.34818    |   0.0 |  0.09
Output  | 0.014952   | 0.014952   | 0.014952   |   0.0 |  0.00
Modify  | 0.25134    | 0.25134    | 0.25134    |   0.0 |  0.07
Other   |            | 0.1638     |            |       |  0.04

Nlocal:           1078 ave        1078 max        1078 min
Histogram: 1 0 0 0 0 0 0 0 0 0
Nghost:           1854 ave        1854 max        1854 min
Histogram: 1 0 0 0 0 0 0 0 0 0
Neighs:              0 ave           0 max           0 min
Histogram: 1 0 0 0 0 0 0 0 0 0
FullNghs:        75742 ave       75742 max       75742 min
Histogram: 1 0 0 0 0 0 0 0 0 0

Total # of neighbors = 75742
Ave neighs/atom = 70.261596
Neighbor list builds = 400
Dangerous builds not checked

unfix      	depo

fix        	1coolB mobile temp/berendsen 298.0 298.0 0.1
fix        	2coolB insert temp/berendsen 298.0 298.0 0.1

run		2000
Per MPI rank memory allocation (min/avg/max) = 164.6 | 164.6 | 164.6 Mbytes
   Step        Atoms      v_nmobile      v_ninject         Temp          TotEng    
    158000        1078   956            26             579.33382     -5224.3901    
    158100        1078   956            26             494.7271      -5238.638     
    158200        1078   956            26             467.21663     -5249.7749    
    158300        1078   956            26             444.62736     -5259.4064    
    158400        1078   956            26             413.40918     -5267.2933    
    158500        1078   956            26             378.05432     -5273.2565    
    158600        1078   956            26             379.96564     -5279.0147    
    158700        1078   956            26             351.39578     -5283.4099    
    158800        1078   956            26             350.35507     -5286.5322    
    158900        1078   956            26             342.86541     -5290.029     
    159000        1078   956            26             328.87122     -5292.9543    
    159100        1078   956            26             314.07602     -5294.776     
    159200        1078   956            26             329.49163     -5296.2639    
    159300        1078   956            26             322.7966      -5298.249     
    159400        1078   956            26             321.17862     -5300.102     
    159500        1078   956            26             315.56836     -5301.5867    
    159600        1078   956            26             313.76094     -5302.4325    
    159700        1078   956            26             307.87297     -5302.9715    
    159800        1078   956            26             312.62275     -5303.8153    
    159900        1078   956            26             312.02418     -5304.7747    
    160000        1078   956            26             310.80605     -5305.7241    
Loop time of 379.32 on 1 procs for 2000 steps with 1078 atoms

Performance: 0.228 ns/day, 105.367 hours/ns, 5.273 timesteps/s, 5.684 katom-step/s
99.7% CPU use with 1 MPI tasks x 1 OpenMP threads

MPI task timing breakdown:
Section |  min time  |  avg time  |  max time  |%varavg| %total
---------------------------------------------------------------
Pair    | 378.67     | 378.67     | 378.67     |   0.0 | 99.83
Neigh   | 0.09109    | 0.09109    | 0.09109    |   0.0 |  0.02
Comm    | 0.30647    | 0.30647    | 0.30647    |   0.0 |  0.08
Output  | 0.041024   | 0.041024   | 0.041024   |   0.0 |  0.01
Modify  | 0.17966    | 0.17966    | 0.17966    |   0.0 |  0.05
Other   |            | 0.03394    |            |       |  0.01

Nlocal:           1078 ave        1078 max        1078 min
Histogram: 1 0 0 0 0 0 0 0 0 0
Nghost:           1851 ave        1851 max        1851 min
Histogram: 1 0 0 0 0 0 0 0 0 0
Neighs:              0 ave           0 max           0 min
Histogram: 1 0 0 0 0 0 0 0 0 0
FullNghs:        75448 ave       75448 max       75448 min
Histogram: 1 0 0 0 0 0 0 0 0 0

Total # of neighbors = 75448
Ave neighs/atom = 69.988868
Neighbor list builds = 400
Dangerous builds not checked

unfix           1coolB
unfix           2coolB

delete_atoms    region del
Deleted 0 atoms, new total = 1078

next		a
jump		in_cpu.lammps loop

variable    	c equal ${c}+1
variable    	c equal 40+1
variable    	deposeed equal floor(random(1,3245,${c}))
variable    	deposeed equal floor(random(1,3245,41))

fix		depo insert deposit 1 2 1000 ${deposeed} region insert vx 0.0 0.0 vy ${vely} ${vely} vz -${velz} -${velz} units box
fix		depo insert deposit 1 2 1000 155 region insert vx 0.0 0.0 vy ${vely} ${vely} vz -${velz} -${velz} units box
fix		depo insert deposit 1 2 1000 155 region insert vx 0.0 0.0 vy 0 ${vely} vz -${velz} -${velz} units box
fix		depo insert deposit 1 2 1000 155 region insert vx 0.0 0.0 vy 0 0 vz -${velz} -${velz} units box
fix		depo insert deposit 1 2 1000 155 region insert vx 0.0 0.0 vy 0 0 vz -219.776405126004 -${velz} units box
fix		depo insert deposit 1 2 1000 155 region insert vx 0.0 0.0 vy 0 0 vz -219.776405126004 -219.776405126004 units box

fix     	2 mobile nve
fix             3 insert nve

run		2000
Per MPI rank memory allocation (min/avg/max) = 164.5 | 164.5 | 164.5 Mbytes
   Step        Atoms      v_nmobile      v_ninject         Temp          TotEng    
    160000        1078   956            26             310.80605     -5305.7241    
    160100        1079   956            27             309.18937     -5305.578     
    160200        1079   956            27             405.06168     -5289.5004    
    160300        1079   956            27             387.71046     -5289.338     
    160400        1079   956            27             822.8311      -5223.8229    
    160500        1079   956            27             734.62123     -5221.1825    
    160600        1079   956            27             583.97928     -5223.0687    
    160700        1079   956            27             559.48663     -5218.2169    
    160800        1079   956            27             615.88434     -5208.3483    
    160900        1079   956            27             609.62509     -5207.7531    
    161000        1079   956            27             611.71233     -5207.9238    
    161100        1079   956            27             620.18538     -5207.9116    
    161200        1079   956            27             627.65572     -5207.7355    
    161300        1079   956            27             613.04986     -5207.9579    
    161400        1079   956            27             591.72774     -5207.1233    
    161500        1079   956            27             625.08793     -5206.8769    
    161600        1079   956            27             591.24747     -5207.5961    
    161700        1079   956            27             606.257       -5207.7978    
    161800        1079   956            27             633.31491     -5207.2926    
    161900        1079   956            27             614.15315     -5207.8033    
    162000        1079   956            27             622.50722     -5208.008     
Loop time of 378.716 on 1 procs for 2000 steps with 1079 atoms

Performance: 0.228 ns/day, 105.199 hours/ns, 5.281 timesteps/s, 5.698 katom-step/s
99.6% CPU use with 1 MPI tasks x 1 OpenMP threads

MPI task timing breakdown:
Section |  min time  |  avg time  |  max time  |%varavg| %total
---------------------------------------------------------------
Pair    | 377.82     | 377.82     | 377.82     |   0.0 | 99.76
Neigh   | 0.091041   | 0.091041   | 0.091041   |   0.0 |  0.02
Comm    | 0.34563    | 0.34563    | 0.34563    |   0.0 |  0.09
Output  | 0.049953   | 0.049953   | 0.049953   |   0.0 |  0.01
Modify  | 0.25076    | 0.25076    | 0.25076    |   0.0 |  0.07
Other   |            | 0.1629     |            |       |  0.04

Nlocal:           1079 ave        1079 max        1079 min
Histogram: 1 0 0 0 0 0 0 0 0 0
Nghost:           1856 ave        1856 max        1856 min
Histogram: 1 0 0 0 0 0 0 0 0 0
Neighs:              0 ave           0 max           0 min
Histogram: 1 0 0 0 0 0 0 0 0 0
FullNghs:        75388 ave       75388 max       75388 min
Histogram: 1 0 0 0 0 0 0 0 0 0

Total # of neighbors = 75388
Ave neighs/atom = 69.868397
Neighbor list builds = 400
Dangerous builds not checked

unfix      	depo

fix        	1coolB mobile temp/berendsen 298.0 298.0 0.1
fix        	2coolB insert temp/berendsen 298.0 298.0 0.1

run		2000
Per MPI rank memory allocation (min/avg/max) = 164.6 | 164.6 | 164.6 Mbytes
   Step        Atoms      v_nmobile      v_ninject         Temp          TotEng    
    162000        1079   956            27             622.50722     -5208.008     
    162100        1079   956            27             563.74761     -5225.1088    
    162200        1079   956            27             490.05019     -5238.758     
    162300        1079   956            27             468.61417     -5249.6956    
    162400        1079   956            27             430.00465     -5259.3167    
    162500        1079   956            27             401.27869     -5267.1555    
    162600        1079   956            27             388.48863     -5273.1581    
    162700        1079   956            27             365.40914     -5278.458     
    162800        1079   956            27             364.76601     -5283.0602    
    162900        1079   956            27             362.86684     -5287.1223    
    163000        1079   956            27             343.67824     -5290.7027    
    163100        1079   956            27             328.58233     -5293.2384    
    163200        1079   956            27             330.51133     -5295.2241    
    163300        1079   956            27             335.63452     -5297.7541    
    163400        1079   956            27             322.95408     -5300.0642    
    163500        1079   956            27             312.67922     -5301.232     
    163600        1079   956            27             318.99704     -5302.6945    
    163700        1079   956            27             309.35128     -5303.8452    
    163800        1079   956            27             307.60649     -5304.4029    
    163900        1079   956            27             304.87336     -5304.9098    
    164000        1079   956            27             313.43058     -5305.5196    
Loop time of 378.69 on 1 procs for 2000 steps with 1079 atoms

Performance: 0.228 ns/day, 105.192 hours/ns, 5.281 timesteps/s, 5.699 katom-step/s
99.7% CPU use with 1 MPI tasks x 1 OpenMP threads

MPI task timing breakdown:
Section |  min time  |  avg time  |  max time  |%varavg| %total
---------------------------------------------------------------
Pair    | 378.05     | 378.05     | 378.05     |   0.0 | 99.83
Neigh   | 0.091311   | 0.091311   | 0.091311   |   0.0 |  0.02
Comm    | 0.30611    | 0.30611    | 0.30611    |   0.0 |  0.08
Output  | 0.029568   | 0.029568   | 0.029568   |   0.0 |  0.01
Modify  | 0.17948    | 0.17948    | 0.17948    |   0.0 |  0.05
Other   |            | 0.03398    |            |       |  0.01

Nlocal:           1079 ave        1079 max        1079 min
Histogram: 1 0 0 0 0 0 0 0 0 0
Nghost:           1866 ave        1866 max        1866 min
Histogram: 1 0 0 0 0 0 0 0 0 0
Neighs:              0 ave           0 max           0 min
Histogram: 1 0 0 0 0 0 0 0 0 0
FullNghs:        75806 ave       75806 max       75806 min
Histogram: 1 0 0 0 0 0 0 0 0 0

Total # of neighbors = 75806
Ave neighs/atom = 70.255792
Neighbor list builds = 400
Dangerous builds not checked

unfix           1coolB
unfix           2coolB

delete_atoms    region del
Deleted 0 atoms, new total = 1079

next		a
jump		in_cpu.lammps loop

variable    	c equal ${c}+1
variable    	c equal 41+1
variable    	deposeed equal floor(random(1,3245,${c}))
variable    	deposeed equal floor(random(1,3245,42))

fix		depo insert deposit 1 2 1000 ${deposeed} region insert vx 0.0 0.0 vy ${vely} ${vely} vz -${velz} -${velz} units box
fix		depo insert deposit 1 2 1000 911 region insert vx 0.0 0.0 vy ${vely} ${vely} vz -${velz} -${velz} units box
fix		depo insert deposit 1 2 1000 911 region insert vx 0.0 0.0 vy 0 ${vely} vz -${velz} -${velz} units box
fix		depo insert deposit 1 2 1000 911 region insert vx 0.0 0.0 vy 0 0 vz -${velz} -${velz} units box
fix		depo insert deposit 1 2 1000 911 region insert vx 0.0 0.0 vy 0 0 vz -219.776405126004 -${velz} units box
fix		depo insert deposit 1 2 1000 911 region insert vx 0.0 0.0 vy 0 0 vz -219.776405126004 -219.776405126004 units box

fix     	2 mobile nve
fix             3 insert nve

run		2000
Per MPI rank memory allocation (min/avg/max) = 164.6 | 164.6 | 164.6 Mbytes
   Step        Atoms      v_nmobile      v_ninject         Temp          TotEng    
    164000        1079   956            27             313.43058     -5305.5196    
    164100        1080   956            28             323.84115     -5305.8141    
    164200        1080   956            28             438.48937     -5282.9587    
    164300        1080   956            28             542.66648     -5264.636     
    164400        1080   956            28             586.73799     -5249.6028    
    164500        1080   956            28             593.83723     -5233.5972    
    164600        1080   956            28             654.12929     -5223.9888    
    164700        1080   956            28             590.7959      -5217.19      
    164800        1080   956            28             585.16556     -5214.1417    
    164900        1080   956            28             585.78993     -5210.9095    
    165000        1080   956            28             606.99648     -5208.463     
    165100        1080   956            28             594.11058     -5207.7503    
    165200        1080   956            28             594.76949     -5207.4895    
    165300        1080   956            28             632.46488     -5207.5202    
    165400        1080   956            28             631.58266     -5207.9429    
    165500        1080   956            28             630.56926     -5207.1468    
    165600        1080   956            28             613.83256     -5206.8228    
    165700        1080   956            28             595.45674     -5206.6911    
    165800        1080   956            28             594.38701     -5206.2476    
    165900        1080   956            28             577.38747     -5206.4282    
    166000        1080   956            28             575.06414     -5206.6829    
Loop time of 379.614 on 1 procs for 2000 steps with 1080 atoms

Performance: 0.228 ns/day, 105.448 hours/ns, 5.269 timesteps/s, 5.690 katom-step/s
99.7% CPU use with 1 MPI tasks x 1 OpenMP threads

MPI task timing breakdown:
Section |  min time  |  avg time  |  max time  |%varavg| %total
---------------------------------------------------------------
Pair    | 378.74     | 378.74     | 378.74     |   0.0 | 99.77
Neigh   | 0.092331   | 0.092331   | 0.092331   |   0.0 |  0.02
Comm    | 0.34775    | 0.34775    | 0.34775    |   0.0 |  0.09
Output  | 0.014935   | 0.014935   | 0.014935   |   0.0 |  0.00
Modify  | 0.25124    | 0.25124    | 0.25124    |   0.0 |  0.07
Other   |            | 0.1636     |            |       |  0.04

Nlocal:           1080 ave        1080 max        1080 min
Histogram: 1 0 0 0 0 0 0 0 0 0
Nghost:           1852 ave        1852 max        1852 min
Histogram: 1 0 0 0 0 0 0 0 0 0
Neighs:              0 ave           0 max           0 min
Histogram: 1 0 0 0 0 0 0 0 0 0
FullNghs:        76214 ave       76214 max       76214 min
Histogram: 1 0 0 0 0 0 0 0 0 0

Total # of neighbors = 76214
Ave neighs/atom = 70.568519
Neighbor list builds = 400
Dangerous builds not checked

unfix      	depo

fix        	1coolB mobile temp/berendsen 298.0 298.0 0.1
fix        	2coolB insert temp/berendsen 298.0 298.0 0.1

run		2000
Per MPI rank memory allocation (min/avg/max) = 164.7 | 164.7 | 164.7 Mbytes
   Step        Atoms      v_nmobile      v_ninject         Temp          TotEng    
    166000        1080   956            28             575.06414     -5206.6829    
    166100        1080   956            28             509.23002     -5222.1943    
    166200        1080   956            28             482.24518     -5234.6388    
    166300        1080   956            28             445.46711     -5244.8762    
    166400        1080   956            28             432.2852      -5254.2568    
    166500        1080   956            28             401.32666     -5261.4259    
    166600        1080   956            28             388.98581     -5267.5834    
    166700        1080   956            28             371.50214     -5272.8677    
    166800        1080   956            28             359.82664     -5276.8961    
    166900        1080   956            28             339.85468     -5280.0108    
    167000        1080   956            28             342.74821     -5283.1517    
    167100        1080   956            28             339.16127     -5285.9434    
    167200        1080   956            28             330.59551     -5288.0977    
    167300        1080   956            28             329.95115     -5289.6657    
    167400        1080   956            28             317.74144     -5291.4186    
    167500        1080   956            28             322.68916     -5292.9098    
    167600        1080   956            28             312.28127     -5294.4257    
    167700        1080   956            28             305.70501     -5295.671     
    167800        1080   956            28             315.90328     -5296.524     
    167900        1080   956            28             322.61487     -5297.6436    
    168000        1080   956            28             314.55047     -5298.7579    
Loop time of 379.569 on 1 procs for 2000 steps with 1080 atoms

Performance: 0.228 ns/day, 105.436 hours/ns, 5.269 timesteps/s, 5.691 katom-step/s
99.7% CPU use with 1 MPI tasks x 1 OpenMP threads

MPI task timing breakdown:
Section |  min time  |  avg time  |  max time  |%varavg| %total
---------------------------------------------------------------
Pair    | 378.93     | 378.93     | 378.93     |   0.0 | 99.83
Neigh   | 0.09168    | 0.09168    | 0.09168    |   0.0 |  0.02
Comm    | 0.30622    | 0.30622    | 0.30622    |   0.0 |  0.08
Output  | 0.031666   | 0.031666   | 0.031666   |   0.0 |  0.01
Modify  | 0.17988    | 0.17988    | 0.17988    |   0.0 |  0.05
Other   |            | 0.03405    |            |       |  0.01

Nlocal:           1080 ave        1080 max        1080 min
Histogram: 1 0 0 0 0 0 0 0 0 0
Nghost:           1866 ave        1866 max        1866 min
Histogram: 1 0 0 0 0 0 0 0 0 0
Neighs:              0 ave           0 max           0 min
Histogram: 1 0 0 0 0 0 0 0 0 0
FullNghs:        76238 ave       76238 max       76238 min
Histogram: 1 0 0 0 0 0 0 0 0 0

Total # of neighbors = 76238
Ave neighs/atom = 70.590741
Neighbor list builds = 400
Dangerous builds not checked

unfix           1coolB
unfix           2coolB

delete_atoms    region del
Deleted 0 atoms, new total = 1080

next		a
jump		in_cpu.lammps loop

variable    	c equal ${c}+1
variable    	c equal 42+1
variable    	deposeed equal floor(random(1,3245,${c}))
variable    	deposeed equal floor(random(1,3245,43))

fix		depo insert deposit 1 2 1000 ${deposeed} region insert vx 0.0 0.0 vy ${vely} ${vely} vz -${velz} -${velz} units box
fix		depo insert deposit 1 2 1000 1630 region insert vx 0.0 0.0 vy ${vely} ${vely} vz -${velz} -${velz} units box
fix		depo insert deposit 1 2 1000 1630 region insert vx 0.0 0.0 vy 0 ${vely} vz -${velz} -${velz} units box
fix		depo insert deposit 1 2 1000 1630 region insert vx 0.0 0.0 vy 0 0 vz -${velz} -${velz} units box
fix		depo insert deposit 1 2 1000 1630 region insert vx 0.0 0.0 vy 0 0 vz -219.776405126004 -${velz} units box
fix		depo insert deposit 1 2 1000 1630 region insert vx 0.0 0.0 vy 0 0 vz -219.776405126004 -219.776405126004 units box

fix     	2 mobile nve
fix             3 insert nve

run		2000
Per MPI rank memory allocation (min/avg/max) = 164.7 | 164.7 | 164.7 Mbytes
   Step        Atoms      v_nmobile      v_ninject         Temp          TotEng    
    168000        1080   956            28             314.55047     -5298.7579    
    168100        1081   956            29             301.50227     -5298.7509    
    168200        1081   956            29             468.27814     -5273.8451    
    168300        1081   956            29             621.99014     -5246.6012    
    168400        1081   956            29             586.39933     -5241.4071    
    168500        1081   956            29             533.83442     -5236.7957    
    168600        1081   956            29             636.11077     -5210.76      
    168700        1081   956            29             614.29141     -5204.6724    
    168800        1081   956            29             583.25822     -5204.1419    
    168900        1081   956            29             583.95438     -5200.9881    
    169000        1081   956            29             586.71166     -5201.1459    
    169100        1081   956            29             604.39204     -5201.2865    
    169200        1081   956            29             602.88555     -5200.7034    
    169300        1081   956            29             616.031       -5200.4684    
    169400        1081   956            29             617.09661     -5200.7638    
    169500        1081   956            29             598.55348     -5200.9689    
    169600        1081   956            29             601.33356     -5201.1198    
    169700        1081   956            29             602.15201     -5201.4476    
    169800        1081   956            29             588.2494      -5200.8678    
    169900        1081   956            29             599.2417      -5200.6753    
    170000        1081   956            29             620.17347     -5200.466     
Loop time of 380.216 on 1 procs for 2000 steps with 1081 atoms

Performance: 0.227 ns/day, 105.615 hours/ns, 5.260 timesteps/s, 5.686 katom-step/s
99.7% CPU use with 1 MPI tasks x 1 OpenMP threads

MPI task timing breakdown:
Section |  min time  |  avg time  |  max time  |%varavg| %total
---------------------------------------------------------------
Pair    | 379.35     | 379.35     | 379.35     |   0.0 | 99.77
Neigh   | 0.09244    | 0.09244    | 0.09244    |   0.0 |  0.02
Comm    | 0.34789    | 0.34789    | 0.34789    |   0.0 |  0.09
Output  | 0.015199   | 0.015199   | 0.015199   |   0.0 |  0.00
Modify  | 0.25121    | 0.25121    | 0.25121    |   0.0 |  0.07
Other   |            | 0.1638     |            |       |  0.04

Nlocal:           1081 ave        1081 max        1081 min
Histogram: 1 0 0 0 0 0 0 0 0 0
Nghost:           1865 ave        1865 max        1865 min
Histogram: 1 0 0 0 0 0 0 0 0 0
Neighs:              0 ave           0 max           0 min
Histogram: 1 0 0 0 0 0 0 0 0 0
FullNghs:        76786 ave       76786 max       76786 min
Histogram: 1 0 0 0 0 0 0 0 0 0

Total # of neighbors = 76786
Ave neighs/atom = 71.032377
Neighbor list builds = 400
Dangerous builds not checked

unfix      	depo

fix        	1coolB mobile temp/berendsen 298.0 298.0 0.1
fix        	2coolB insert temp/berendsen 298.0 298.0 0.1

run		2000
Per MPI rank memory allocation (min/avg/max) = 164.8 | 164.8 | 164.8 Mbytes
   Step        Atoms      v_nmobile      v_ninject         Temp          TotEng    
    170000        1081   956            29             620.17347     -5200.466     
    170100        1081   956            29             545.62508     -5217.4642    
    170200        1081   956            29             496.82121     -5231.2575    
    170300        1081   956            29             459.69017     -5242.1071    
    170400        1081   956            29             430.334       -5251.2854    
    170500        1081   956            29             401.23616     -5258.7195    
    170600        1081   956            29             397.08737     -5265.6878    
    170700        1081   956            29             374.88088     -5271.1472    
    170800        1081   956            29             369.30561     -5275.9134    
    170900        1081   956            29             350.86491     -5280.0896    
    171000        1081   956            29             337.57835     -5282.9809    
    171100        1081   956            29             331.1422      -5284.9489    
    171200        1081   956            29             322.63371     -5286.5624    
    171300        1081   956            29             331.05457     -5288.1374    
    171400        1081   956            29             323.3082      -5289.8248    
    171500        1081   956            29             323.50202     -5291.3914    
    171600        1081   956            29             304.03441     -5292.5931    
    171700        1081   956            29             313.04691     -5293.3998    
    171800        1081   956            29             324.41097     -5294.7668    
    171900        1081   956            29             313.26691     -5295.9837    
    172000        1081   956            29             319.26796     -5296.9048    
Loop time of 380.526 on 1 procs for 2000 steps with 1081 atoms

Performance: 0.227 ns/day, 105.702 hours/ns, 5.256 timesteps/s, 5.682 katom-step/s
99.6% CPU use with 1 MPI tasks x 1 OpenMP threads

MPI task timing breakdown:
Section |  min time  |  avg time  |  max time  |%varavg| %total
---------------------------------------------------------------
Pair    | 379.86     | 379.86     | 379.86     |   0.0 | 99.83
Neigh   | 0.091738   | 0.091738   | 0.091738   |   0.0 |  0.02
Comm    | 0.30461    | 0.30461    | 0.30461    |   0.0 |  0.08
Output  | 0.053874   | 0.053874   | 0.053874   |   0.0 |  0.01
Modify  | 0.17881    | 0.17881    | 0.17881    |   0.0 |  0.05
Other   |            | 0.03374    |            |       |  0.01

Nlocal:           1081 ave        1081 max        1081 min
Histogram: 1 0 0 0 0 0 0 0 0 0
Nghost:           1885 ave        1885 max        1885 min
Histogram: 1 0 0 0 0 0 0 0 0 0
Neighs:              0 ave           0 max           0 min
Histogram: 1 0 0 0 0 0 0 0 0 0
FullNghs:        76820 ave       76820 max       76820 min
Histogram: 1 0 0 0 0 0 0 0 0 0

Total # of neighbors = 76820
Ave neighs/atom = 71.06383
Neighbor list builds = 400
Dangerous builds not checked

unfix           1coolB
unfix           2coolB

delete_atoms    region del
Deleted 0 atoms, new total = 1081

next		a
jump		in_cpu.lammps loop

variable    	c equal ${c}+1
variable    	c equal 43+1
variable    	deposeed equal floor(random(1,3245,${c}))
variable    	deposeed equal floor(random(1,3245,44))

fix		depo insert deposit 1 2 1000 ${deposeed} region insert vx 0.0 0.0 vy ${vely} ${vely} vz -${velz} -${velz} units box
fix		depo insert deposit 1 2 1000 1053 region insert vx 0.0 0.0 vy ${vely} ${vely} vz -${velz} -${velz} units box
fix		depo insert deposit 1 2 1000 1053 region insert vx 0.0 0.0 vy 0 ${vely} vz -${velz} -${velz} units box
fix		depo insert deposit 1 2 1000 1053 region insert vx 0.0 0.0 vy 0 0 vz -${velz} -${velz} units box
fix		depo insert deposit 1 2 1000 1053 region insert vx 0.0 0.0 vy 0 0 vz -219.776405126004 -${velz} units box
fix		depo insert deposit 1 2 1000 1053 region insert vx 0.0 0.0 vy 0 0 vz -219.776405126004 -219.776405126004 units box

fix     	2 mobile nve
fix             3 insert nve

run		2000
Per MPI rank memory allocation (min/avg/max) = 165 | 165 | 165 Mbytes
   Step        Atoms      v_nmobile      v_ninject         Temp          TotEng    
    172000        1081   956            29             319.26796     -5296.9048    
    172100        1082   956            30             329.25567     -5296.9001    
    172200        1082   956            30             437.72746     -5278.6385    
    172300        1082   956            30             740.8851      -5234.7144    
    172400        1082   956            30             764.28391     -5220.5199    
    172500        1082   956            30             637.87653     -5220.5339    
    172600        1082   956            30             700.34345     -5204.2718    
    172700        1082   956            30             659.38733     -5201.935     
    172800        1082   956            30             603.6949      -5198.2359    
    172900        1082   956            30             612.85766     -5198.3723    
    173000        1082   956            30             597.35986     -5197.9883    
    173100        1082   956            30             617.59146     -5198.4708    
    173200        1082   956            30             593.20723     -5198.5394    
    173300        1082   956            30             583.89867     -5198.7002    
    173400        1082   956            30             611.95732     -5198.7239    
    173500        1082   956            30             615.88396     -5198.8219    
    173600        1082   956            30             621.99701     -5199.1871    
    173700        1082   956            30             593.20496     -5199.3292    
    173800        1082   956            30             603.36742     -5198.6701    
    173900        1082   956            30             593.47566     -5198.2673    
    174000        1082   956            30             597.25165     -5198.1904    
Loop time of 380.04 on 1 procs for 2000 steps with 1082 atoms

Performance: 0.227 ns/day, 105.567 hours/ns, 5.263 timesteps/s, 5.694 katom-step/s
99.6% CPU use with 1 MPI tasks x 1 OpenMP threads

MPI task timing breakdown:
Section |  min time  |  avg time  |  max time  |%varavg| %total
---------------------------------------------------------------
Pair    | 379.17     | 379.17     | 379.17     |   0.0 | 99.77
Neigh   | 0.092321   | 0.092321   | 0.092321   |   0.0 |  0.02
Comm    | 0.34496    | 0.34496    | 0.34496    |   0.0 |  0.09
Output  | 0.015017   | 0.015017   | 0.015017   |   0.0 |  0.00
Modify  | 0.25088    | 0.25088    | 0.25088    |   0.0 |  0.07
Other   |            | 0.163      |            |       |  0.04

Nlocal:           1082 ave        1082 max        1082 min
Histogram: 1 0 0 0 0 0 0 0 0 0
Nghost:           1875 ave        1875 max        1875 min
Histogram: 1 0 0 0 0 0 0 0 0 0
Neighs:              0 ave           0 max           0 min
Histogram: 1 0 0 0 0 0 0 0 0 0
FullNghs:        76182 ave       76182 max       76182 min
Histogram: 1 0 0 0 0 0 0 0 0 0

Total # of neighbors = 76182
Ave neighs/atom = 70.408503
Neighbor list builds = 400
Dangerous builds not checked

unfix      	depo

fix        	1coolB mobile temp/berendsen 298.0 298.0 0.1
fix        	2coolB insert temp/berendsen 298.0 298.0 0.1

run		2000
Per MPI rank memory allocation (min/avg/max) = 165 | 165 | 165 Mbytes
   Step        Atoms      v_nmobile      v_ninject         Temp          TotEng    
    174000        1082   956            30             597.25165     -5198.1904    
    174100        1082   956            30             536.47664     -5215.2658    
    174200        1082   956            30             482.48945     -5228.24      
    174300        1082   956            30             466.23172     -5240.0288    
    174400        1082   956            30             418.24929     -5249.3408    
    174500        1082   956            30             420.6674      -5257.068     
    174600        1082   956            30             387.23964     -5263.6323    
    174700        1082   956            30             374.44498     -5268.6983    
    174800        1082   956            30             363.8922      -5273.2635    
    174900        1082   956            30             344.28929     -5277.1992    
    175000        1082   956            30             332.02979     -5280.1563    
    175100        1082   956            30             340.61044     -5282.5384    
    175200        1082   956            30             342.81656     -5285.0724    
    175300        1082   956            30             328.05039     -5287.144     
    175400        1082   956            30             327.49788     -5288.9592    
    175500        1082   956            30             320.33899     -5290.2587    
    175600        1082   956            30             316.20491     -5291.8327    
    175700        1082   956            30             324.04719     -5293.4423    
    175800        1082   956            30             326.67762     -5294.9062    
    175900        1082   956            30             301.8861      -5295.8481    
    176000        1082   956            30             304.89794     -5296.3683    
Loop time of 379.802 on 1 procs for 2000 steps with 1082 atoms

Performance: 0.227 ns/day, 105.500 hours/ns, 5.266 timesteps/s, 5.698 katom-step/s
99.6% CPU use with 1 MPI tasks x 1 OpenMP threads

MPI task timing breakdown:
Section |  min time  |  avg time  |  max time  |%varavg| %total
---------------------------------------------------------------
Pair    | 379.16     | 379.16     | 379.16     |   0.0 | 99.83
Neigh   | 0.09214    | 0.09214    | 0.09214    |   0.0 |  0.02
Comm    | 0.30189    | 0.30189    | 0.30189    |   0.0 |  0.08
Output  | 0.03498    | 0.03498    | 0.03498    |   0.0 |  0.01
Modify  | 0.17794    | 0.17794    | 0.17794    |   0.0 |  0.05
Other   |            | 0.03336    |            |       |  0.01

Nlocal:           1082 ave        1082 max        1082 min
Histogram: 1 0 0 0 0 0 0 0 0 0
Nghost:           1866 ave        1866 max        1866 min
Histogram: 1 0 0 0 0 0 0 0 0 0
Neighs:              0 ave           0 max           0 min
Histogram: 1 0 0 0 0 0 0 0 0 0
FullNghs:        76742 ave       76742 max       76742 min
Histogram: 1 0 0 0 0 0 0 0 0 0

Total # of neighbors = 76742
Ave neighs/atom = 70.926063
Neighbor list builds = 400
Dangerous builds not checked

unfix           1coolB
unfix           2coolB

delete_atoms    region del
Deleted 0 atoms, new total = 1082

next		a
jump		in_cpu.lammps loop

variable    	c equal ${c}+1
variable    	c equal 44+1
variable    	deposeed equal floor(random(1,3245,${c}))
variable    	deposeed equal floor(random(1,3245,45))

fix		depo insert deposit 1 2 1000 ${deposeed} region insert vx 0.0 0.0 vy ${vely} ${vely} vz -${velz} -${velz} units box
fix		depo insert deposit 1 2 1000 1984 region insert vx 0.0 0.0 vy ${vely} ${vely} vz -${velz} -${velz} units box
fix		depo insert deposit 1 2 1000 1984 region insert vx 0.0 0.0 vy 0 ${vely} vz -${velz} -${velz} units box
fix		depo insert deposit 1 2 1000 1984 region insert vx 0.0 0.0 vy 0 0 vz -${velz} -${velz} units box
fix		depo insert deposit 1 2 1000 1984 region insert vx 0.0 0.0 vy 0 0 vz -219.776405126004 -${velz} units box
fix		depo insert deposit 1 2 1000 1984 region insert vx 0.0 0.0 vy 0 0 vz -219.776405126004 -219.776405126004 units box

fix     	2 mobile nve
fix             3 insert nve

run		2000
Per MPI rank memory allocation (min/avg/max) = 164.9 | 164.9 | 164.9 Mbytes
   Step        Atoms      v_nmobile      v_ninject         Temp          TotEng    
    176000        1082   956            30             304.89794     -5296.3683    
    176100        1083   956            31             326.97166     -5296.5647    
    176200        1083   956            31             374.80852     -5287.9658    
    176300        1083   956            31             372.96032     -5282.1584    
    176400        1083   956            31             491.0154      -5237.6546    
    176500        1083   956            31             709.2084      -5212.1849    
    176600        1083   956            31             735.90578     -5206.1837    
    176700        1083   956            31             672.33246     -5201.5509    
    176800        1083   956            31             662.20741     -5199.1984    
    176900        1083   956            31             650.92191     -5198.8141    
    177000        1083   956            31             605.76796     -5198.4751    
    177100        1083   956            31             601.39694     -5198.1478    
    177200        1083   956            31             619.35406     -5197.8501    
    177300        1083   956            31             631.54025     -5197.8687    
    177400        1083   956            31             618.97406     -5197.8443    
    177500        1083   956            31             616.36483     -5197.6108    
    177600        1083   956            31             625.04692     -5197.248     
    177700        1083   956            31             618.10564     -5197.3346    
    177800        1083   956            31             603.7547      -5197.4995    
    177900        1083   956            31             598.555       -5197.5512    
    178000        1083   956            31             613.89362     -5197.5435    
Loop time of 380.608 on 1 procs for 2000 steps with 1083 atoms

Performance: 0.227 ns/day, 105.725 hours/ns, 5.255 timesteps/s, 5.691 katom-step/s
99.7% CPU use with 1 MPI tasks x 1 OpenMP threads

MPI task timing breakdown:
Section |  min time  |  avg time  |  max time  |%varavg| %total
---------------------------------------------------------------
Pair    | 379.74     | 379.74     | 379.74     |   0.0 | 99.77
Neigh   | 0.093055   | 0.093055   | 0.093055   |   0.0 |  0.02
Comm    | 0.34343    | 0.34343    | 0.34343    |   0.0 |  0.09
Output  | 0.01478    | 0.01478    | 0.01478    |   0.0 |  0.00
Modify  | 0.25015    | 0.25015    | 0.25015    |   0.0 |  0.07
Other   |            | 0.1628     |            |       |  0.04

Nlocal:           1083 ave        1083 max        1083 min
Histogram: 1 0 0 0 0 0 0 0 0 0
Nghost:           1863 ave        1863 max        1863 min
Histogram: 1 0 0 0 0 0 0 0 0 0
Neighs:              0 ave           0 max           0 min
Histogram: 1 0 0 0 0 0 0 0 0 0
FullNghs:        75946 ave       75946 max       75946 min
Histogram: 1 0 0 0 0 0 0 0 0 0

Total # of neighbors = 75946
Ave neighs/atom = 70.125577
Neighbor list builds = 400
Dangerous builds not checked

unfix      	depo

fix        	1coolB mobile temp/berendsen 298.0 298.0 0.1
fix        	2coolB insert temp/berendsen 298.0 298.0 0.1

run		2000
Per MPI rank memory allocation (min/avg/max) = 165 | 165 | 165 Mbytes
   Step        Atoms      v_nmobile      v_ninject         Temp          TotEng    
    178000        1083   956            31             613.89362     -5197.5435    
    178100        1083   956            31             536.93752     -5214.3615    
    178200        1083   956            31             498.786       -5227.8538    
    178300        1083   956            31             461.42909     -5238.7385    
    178400        1083   956            31             427.84904     -5247.8709    
    178500        1083   956            31             411.07774     -5255.4194    
    178600        1083   956            31             391.88865     -5261.3542    
    178700        1083   956            31             384.70187     -5266.7826    
    178800        1083   956            31             350.65861     -5271.1901    
    178900        1083   956            31             353.00664     -5274.3441    
    179000        1083   956            31             352.30804     -5277.7898    
    179100        1083   956            31             339.54343     -5280.3436    
    179200        1083   956            31             337.67441     -5282.6216    
    179300        1083   956            31             340.47441     -5285.6059    
    179400        1083   956            31             319.63369     -5287.2849    
    179500        1083   956            31             317.34075     -5288.7671    
    179600        1083   956            31             329.83687     -5290.2973    
    179700        1083   956            31             317.48696     -5292.3945    
    179800        1083   956            31             320.85203     -5293.9192    
    179900        1083   956            31             313.22867     -5295.4319    
    180000        1083   956            31             306.6036      -5296.509     
Loop time of 380.023 on 1 procs for 2000 steps with 1083 atoms

Performance: 0.227 ns/day, 105.562 hours/ns, 5.263 timesteps/s, 5.700 katom-step/s
99.7% CPU use with 1 MPI tasks x 1 OpenMP threads

MPI task timing breakdown:
Section |  min time  |  avg time  |  max time  |%varavg| %total
---------------------------------------------------------------
Pair    | 379.4      | 379.4      | 379.4      |   0.0 | 99.84
Neigh   | 0.092274   | 0.092274   | 0.092274   |   0.0 |  0.02
Comm    | 0.30188    | 0.30188    | 0.30188    |   0.0 |  0.08
Output  | 0.018683   | 0.018683   | 0.018683   |   0.0 |  0.00
Modify  | 0.17834    | 0.17834    | 0.17834    |   0.0 |  0.05
Other   |            | 0.0332     |            |       |  0.01

Nlocal:           1083 ave        1083 max        1083 min
Histogram: 1 0 0 0 0 0 0 0 0 0
Nghost:           1876 ave        1876 max        1876 min
Histogram: 1 0 0 0 0 0 0 0 0 0
Neighs:              0 ave           0 max           0 min
Histogram: 1 0 0 0 0 0 0 0 0 0
FullNghs:        76122 ave       76122 max       76122 min
Histogram: 1 0 0 0 0 0 0 0 0 0

Total # of neighbors = 76122
Ave neighs/atom = 70.288089
Neighbor list builds = 400
Dangerous builds not checked

unfix           1coolB
unfix           2coolB

delete_atoms    region del
Deleted 0 atoms, new total = 1083

next		a
jump		in_cpu.lammps loop

variable    	c equal ${c}+1
variable    	c equal 45+1
variable    	deposeed equal floor(random(1,3245,${c}))
variable    	deposeed equal floor(random(1,3245,46))

fix		depo insert deposit 1 2 1000 ${deposeed} region insert vx 0.0 0.0 vy ${vely} ${vely} vz -${velz} -${velz} units box
fix		depo insert deposit 1 2 1000 1878 region insert vx 0.0 0.0 vy ${vely} ${vely} vz -${velz} -${velz} units box
fix		depo insert deposit 1 2 1000 1878 region insert vx 0.0 0.0 vy 0 ${vely} vz -${velz} -${velz} units box
fix		depo insert deposit 1 2 1000 1878 region insert vx 0.0 0.0 vy 0 0 vz -${velz} -${velz} units box
fix		depo insert deposit 1 2 1000 1878 region insert vx 0.0 0.0 vy 0 0 vz -219.776405126004 -${velz} units box
fix		depo insert deposit 1 2 1000 1878 region insert vx 0.0 0.0 vy 0 0 vz -219.776405126004 -219.776405126004 units box

fix     	2 mobile nve
fix             3 insert nve

run		2000
Per MPI rank memory allocation (min/avg/max) = 165 | 165 | 165 Mbytes
   Step        Atoms      v_nmobile      v_ninject         Temp          TotEng    
    180000        1083   956            31             306.6036      -5296.509     
    180100        1084   956            32             310.29915     -5296.4844    
    180200        1084   956            32             657.97058     -5222.7342    
    180300        1084   956            32             942.32246     -5198.0518    
    180400        1084   956            32             824.93005     -5197.9117    
    180500        1084   956            32             692.80972     -5196.8275    
    180600        1084   956            32             637.10084     -5197.3765    
    180700        1084   956            32             596.44291     -5197.6029    
    180800        1084   956            32             601.63484     -5198.1058    
    180900        1084   956            32             593.6934      -5198.4921    
    181000        1084   956            32             577.91971     -5198.3635    
    181100        1084   956            32             606.84576     -5198.176     
    181200        1084   956            32             615.63833     -5198.025     
    181300        1084   956            32             619.7811      -5198.135     
    181400        1084   956            32             654.43275     -5198.7681    
    181500        1084   956            32             637.52918     -5198.6115    
    181600        1084   956            32             637.17504     -5198.6289    
    181700        1084   956            32             622.95416     -5198.7669    
    181800        1084   956            32             611.00354     -5198.8279    
    181900        1084   956            32             593.92547     -5199.1911    
    182000        1084   956            32             594.92929     -5198.5176    
Loop time of 380.81 on 1 procs for 2000 steps with 1084 atoms

Performance: 0.227 ns/day, 105.781 hours/ns, 5.252 timesteps/s, 5.693 katom-step/s
99.6% CPU use with 1 MPI tasks x 1 OpenMP threads

MPI task timing breakdown:
Section |  min time  |  avg time  |  max time  |%varavg| %total
---------------------------------------------------------------
Pair    | 379.92     | 379.92     | 379.92     |   0.0 | 99.77
Neigh   | 0.093159   | 0.093159   | 0.093159   |   0.0 |  0.02
Comm    | 0.3408     | 0.3408     | 0.3408     |   0.0 |  0.09
Output  | 0.04624    | 0.04624    | 0.04624    |   0.0 |  0.01
Modify  | 0.24831    | 0.24831    | 0.24831    |   0.0 |  0.07
Other   |            | 0.1616     |            |       |  0.04

Nlocal:           1084 ave        1084 max        1084 min
Histogram: 1 0 0 0 0 0 0 0 0 0
Nghost:           1850 ave        1850 max        1850 min
Histogram: 1 0 0 0 0 0 0 0 0 0
Neighs:              0 ave           0 max           0 min
Histogram: 1 0 0 0 0 0 0 0 0 0
FullNghs:        76996 ave       76996 max       76996 min
Histogram: 1 0 0 0 0 0 0 0 0 0

Total # of neighbors = 76996
Ave neighs/atom = 71.02952
Neighbor list builds = 400
Dangerous builds not checked

unfix      	depo

fix        	1coolB mobile temp/berendsen 298.0 298.0 0.1
fix        	2coolB insert temp/berendsen 298.0 298.0 0.1

run		2000
Per MPI rank memory allocation (min/avg/max) = 165.1 | 165.1 | 165.1 Mbytes
   Step        Atoms      v_nmobile      v_ninject         Temp          TotEng    
    182000        1084   956            32             594.92929     -5198.5176    
    182100        1084   956            32             510.18575     -5214.0399    
    182200        1084   956            32             489.01455     -5226.6166    
    182300        1084   956            32             438.66116     -5236.9164    
    182400        1084   956            32             426.23209     -5245.3648    
    182500        1084   956            32             406.38323     -5253.1118    
    182600        1084   956            32             404.80123     -5259.7409    
    182700        1084   956            32             358.35503     -5264.8929    
    182800        1084   956            32             352.40589     -5268.7473    
    182900        1084   956            32             344.66921     -5272.1004    
    183000        1084   956            32             333.88955     -5274.8685    
    183100        1084   956            32             339.43349     -5277.2867    
    183200        1084   956            32             339.28099     -5280.0303    
    183300        1084   956            32             332.15649     -5282.7255    
    183400        1084   956            32             324.13918     -5284.6817    
    183500        1084   956            32             318.80113     -5286.0433    
    183600        1084   956            32             329.20002     -5287.8235    
    183700        1084   956            32             315.16194     -5289.4129    
    183800        1084   956            32             309.6695      -5290.9533    
    183900        1084   956            32             315.74676     -5291.5313    
    184000        1084   956            32             313.07726     -5292.5985    
Loop time of 381.81 on 1 procs for 2000 steps with 1084 atoms

Performance: 0.226 ns/day, 106.058 hours/ns, 5.238 timesteps/s, 5.678 katom-step/s
99.7% CPU use with 1 MPI tasks x 1 OpenMP threads

MPI task timing breakdown:
Section |  min time  |  avg time  |  max time  |%varavg| %total
---------------------------------------------------------------
Pair    | 381.18     | 381.18     | 381.18     |   0.0 | 99.84
Neigh   | 0.092727   | 0.092727   | 0.092727   |   0.0 |  0.02
Comm    | 0.30064    | 0.30064    | 0.30064    |   0.0 |  0.08
Output  | 0.023438   | 0.023438   | 0.023438   |   0.0 |  0.01
Modify  | 0.17667    | 0.17667    | 0.17667    |   0.0 |  0.05
Other   |            | 0.03307    |            |       |  0.01

Nlocal:           1084 ave        1084 max        1084 min
Histogram: 1 0 0 0 0 0 0 0 0 0
Nghost:           1838 ave        1838 max        1838 min
Histogram: 1 0 0 0 0 0 0 0 0 0
Neighs:              0 ave           0 max           0 min
Histogram: 1 0 0 0 0 0 0 0 0 0
FullNghs:        77434 ave       77434 max       77434 min
Histogram: 1 0 0 0 0 0 0 0 0 0

Total # of neighbors = 77434
Ave neighs/atom = 71.433579
Neighbor list builds = 400
Dangerous builds not checked

unfix           1coolB
unfix           2coolB

delete_atoms    region del
Deleted 0 atoms, new total = 1084

next		a
jump		in_cpu.lammps loop

variable    	c equal ${c}+1
variable    	c equal 46+1
variable    	deposeed equal floor(random(1,3245,${c}))
variable    	deposeed equal floor(random(1,3245,47))

fix		depo insert deposit 1 2 1000 ${deposeed} region insert vx 0.0 0.0 vy ${vely} ${vely} vz -${velz} -${velz} units box
fix		depo insert deposit 1 2 1000 3108 region insert vx 0.0 0.0 vy ${vely} ${vely} vz -${velz} -${velz} units box
fix		depo insert deposit 1 2 1000 3108 region insert vx 0.0 0.0 vy 0 ${vely} vz -${velz} -${velz} units box
fix		depo insert deposit 1 2 1000 3108 region insert vx 0.0 0.0 vy 0 0 vz -${velz} -${velz} units box
fix		depo insert deposit 1 2 1000 3108 region insert vx 0.0 0.0 vy 0 0 vz -219.776405126004 -${velz} units box
fix		depo insert deposit 1 2 1000 3108 region insert vx 0.0 0.0 vy 0 0 vz -219.776405126004 -219.776405126004 units box

fix     	2 mobile nve
fix             3 insert nve

run		2000
Per MPI rank memory allocation (min/avg/max) = 164.9 | 164.9 | 164.9 Mbytes
   Step        Atoms      v_nmobile      v_ninject         Temp          TotEng    
    184000        1084   956            32             313.07726     -5292.5985    
    184100        1085   956            33             318.90195     -5292.6437    
    184200        1085   956            33             405.17961     -5277.0262    
    184300        1085   956            33             425.35312     -5263.1315    
    184400        1085   956            33             432.45671     -5259.9476    
    184500        1085   956            33             816.13957     -5198.4843    
    184600        1085   956            33             684.01323     -5198.7087    
    184700        1085   956            33             628.69062     -5198.5186    
    184800        1085   956            33             604.45577     -5197.9246    
    184900        1085   956            33             592.42173     -5197.9622    
    185000        1085   956            33             627.60722     -5194.1926    
    185100        1085   956            33             624.08446     -5194.1036    
    185200        1084   955            33             612.26397     -5191.5843    
    185300        1084   955            33             594.75122     -5191.3343    
    185400        1084   955            33             594.05093     -5191.4495    
    185500        1084   955            33             622.16418     -5191.2023    
    185600        1084   955            33             613.98637     -5190.8856    
    185700        1084   955            33             610.30433     -5190.7659    
    185800        1084   955            33             606.54697     -5190.3905    
    185900        1084   955            33             605.8717      -5190.533     
    186000        1084   955            33             592.59039     -5190.6189    
Loop time of 382.166 on 1 procs for 2000 steps with 1084 atoms

Performance: 0.226 ns/day, 106.157 hours/ns, 5.233 timesteps/s, 5.673 katom-step/s
99.6% CPU use with 1 MPI tasks x 1 OpenMP threads

MPI task timing breakdown:
Section |  min time  |  avg time  |  max time  |%varavg| %total
---------------------------------------------------------------
Pair    | 381.28     | 381.28     | 381.28     |   0.0 | 99.77
Neigh   | 0.093101   | 0.093101   | 0.093101   |   0.0 |  0.02
Comm    | 0.34326    | 0.34326    | 0.34326    |   0.0 |  0.09
Output  | 0.032653   | 0.032653   | 0.032653   |   0.0 |  0.01
Modify  | 0.25037    | 0.25037    | 0.25037    |   0.0 |  0.07
Other   |            | 0.1623     |            |       |  0.04

Nlocal:           1084 ave        1084 max        1084 min
Histogram: 1 0 0 0 0 0 0 0 0 0
Nghost:           1843 ave        1843 max        1843 min
Histogram: 1 0 0 0 0 0 0 0 0 0
Neighs:              0 ave           0 max           0 min
Histogram: 1 0 0 0 0 0 0 0 0 0
FullNghs:        76678 ave       76678 max       76678 min
Histogram: 1 0 0 0 0 0 0 0 0 0

Total # of neighbors = 76678
Ave neighs/atom = 70.736162
Neighbor list builds = 400
Dangerous builds not checked

unfix      	depo

fix        	1coolB mobile temp/berendsen 298.0 298.0 0.1
fix        	2coolB insert temp/berendsen 298.0 298.0 0.1

run		2000
Per MPI rank memory allocation (min/avg/max) = 165.1 | 165.1 | 165.1 Mbytes
   Step        Atoms      v_nmobile      v_ninject         Temp          TotEng    
    186000        1084   955            33             592.59039     -5190.6189    
    186100        1084   955            33             529.23246     -5206.2053    
    186200        1084   955            33             493.25963     -5219.2168    
    186300        1084   955            33             469.53294     -5231.0639    
    186400        1084   955            33             428.12572     -5240.7521    
    186500        1084   955            33             417.27756     -5248.7189    
    186600        1084   955            33             399.9921      -5254.5457    
    186700        1084   955            33             380.87675     -5260.1502    
    186800        1084   955            33             357.04737     -5264.6908    
    186900        1084   955            33             354.07868     -5268.5802    
    187000        1084   955            33             342.54588     -5271.6639    
    187100        1084   955            33             331.10908     -5274.1821    
    187200        1084   955            33             321.58339     -5276.4129    
    187300        1084   955            33             333.81143     -5278.195     
    187400        1084   955            33             326.26298     -5280.4219    
    187500        1084   955            33             321.07273     -5282.4045    
    187600        1084   955            33             326.62709     -5283.9498    
    187700        1084   955            33             324.33771     -5285.5516    
    187800        1084   955            33             312.56478     -5286.4439    
    187900        1084   955            33             311.32358     -5287.4661    
    188000        1084   955            33             313.24647     -5288.535     
Loop time of 381.083 on 1 procs for 2000 steps with 1084 atoms

Performance: 0.227 ns/day, 105.856 hours/ns, 5.248 timesteps/s, 5.689 katom-step/s
99.6% CPU use with 1 MPI tasks x 1 OpenMP threads

MPI task timing breakdown:
Section |  min time  |  avg time  |  max time  |%varavg| %total
---------------------------------------------------------------
Pair    | 380.44     | 380.44     | 380.44     |   0.0 | 99.83
Neigh   | 0.092304   | 0.092304   | 0.092304   |   0.0 |  0.02
Comm    | 0.30179    | 0.30179    | 0.30179    |   0.0 |  0.08
Output  | 0.039229   | 0.039229   | 0.039229   |   0.0 |  0.01
Modify  | 0.17762    | 0.17762    | 0.17762    |   0.0 |  0.05
Other   |            | 0.03331    |            |       |  0.01

Nlocal:           1084 ave        1084 max        1084 min
Histogram: 1 0 0 0 0 0 0 0 0 0
Nghost:           1862 ave        1862 max        1862 min
Histogram: 1 0 0 0 0 0 0 0 0 0
Neighs:              0 ave           0 max           0 min
Histogram: 1 0 0 0 0 0 0 0 0 0
FullNghs:        76960 ave       76960 max       76960 min
Histogram: 1 0 0 0 0 0 0 0 0 0

Total # of neighbors = 76960
Ave neighs/atom = 70.99631
Neighbor list builds = 400
Dangerous builds not checked

unfix           1coolB
unfix           2coolB

delete_atoms    region del
Deleted 0 atoms, new total = 1084

next		a
jump		in_cpu.lammps loop

variable    	c equal ${c}+1
variable    	c equal 47+1
variable    	deposeed equal floor(random(1,3245,${c}))
variable    	deposeed equal floor(random(1,3245,48))

fix		depo insert deposit 1 2 1000 ${deposeed} region insert vx 0.0 0.0 vy ${vely} ${vely} vz -${velz} -${velz} units box
fix		depo insert deposit 1 2 1000 1296 region insert vx 0.0 0.0 vy ${vely} ${vely} vz -${velz} -${velz} units box
fix		depo insert deposit 1 2 1000 1296 region insert vx 0.0 0.0 vy 0 ${vely} vz -${velz} -${velz} units box
fix		depo insert deposit 1 2 1000 1296 region insert vx 0.0 0.0 vy 0 0 vz -${velz} -${velz} units box
fix		depo insert deposit 1 2 1000 1296 region insert vx 0.0 0.0 vy 0 0 vz -219.776405126004 -${velz} units box
fix		depo insert deposit 1 2 1000 1296 region insert vx 0.0 0.0 vy 0 0 vz -219.776405126004 -219.776405126004 units box

fix     	2 mobile nve
fix             3 insert nve

run		2000
Per MPI rank memory allocation (min/avg/max) = 165.2 | 165.2 | 165.2 Mbytes
   Step        Atoms      v_nmobile      v_ninject         Temp          TotEng    
    188000        1084   955            33             313.24647     -5288.535     
    188100        1085   955            34             312.28085     -5288.4341    
    188200        1085   955            34             309.44272     -5284.0742    
    188300        1085   955            34             545.19608     -5252.893     
    188400        1085   955            34             501.92828     -5248.8114    
    188500        1085   955            34             777.12457     -5206.2433    
    188600        1085   955            34             785.26215     -5192.1888    
    188700        1085   955            34             727.46586     -5190.417     
    188800        1085   955            34             664.84502     -5190.8513    
    188900        1085   955            34             623.04783     -5189.8953    
    189000        1085   955            34             611.59462     -5190.0476    
    189100        1085   955            34             637.932       -5190.5031    
    189200        1085   955            34             619.06088     -5190.3873    
    189300        1085   955            34             624.13662     -5190.0759    
    189400        1085   955            34             629.50377     -5190.5592    
    189500        1085   955            34             620.73391     -5190.5616    
    189600        1085   955            34             613.86955     -5190.4959    
    189700        1085   955            34             636.49457     -5190.2557    
    189800        1085   955            34             651.94242     -5189.93      
    189900        1085   955            34             626.20644     -5189.8779    
    190000        1085   955            34             631.02694     -5190.1345    
Loop time of 381.127 on 1 procs for 2000 steps with 1085 atoms

Performance: 0.227 ns/day, 105.869 hours/ns, 5.248 timesteps/s, 5.694 katom-step/s
99.6% CPU use with 1 MPI tasks x 1 OpenMP threads

MPI task timing breakdown:
Section |  min time  |  avg time  |  max time  |%varavg| %total
---------------------------------------------------------------
Pair    | 380.26     | 380.26     | 380.26     |   0.0 | 99.77
Neigh   | 0.092405   | 0.092405   | 0.092405   |   0.0 |  0.02
Comm    | 0.34334    | 0.34334    | 0.34334    |   0.0 |  0.09
Output  | 0.014885   | 0.014885   | 0.014885   |   0.0 |  0.00
Modify  | 0.25025    | 0.25025    | 0.25025    |   0.0 |  0.07
Other   |            | 0.1626     |            |       |  0.04

Nlocal:           1085 ave        1085 max        1085 min
Histogram: 1 0 0 0 0 0 0 0 0 0
Nghost:           1855 ave        1855 max        1855 min
Histogram: 1 0 0 0 0 0 0 0 0 0
Neighs:              0 ave           0 max           0 min
Histogram: 1 0 0 0 0 0 0 0 0 0
FullNghs:        75710 ave       75710 max       75710 min
Histogram: 1 0 0 0 0 0 0 0 0 0

Total # of neighbors = 75710
Ave neighs/atom = 69.778802
Neighbor list builds = 400
Dangerous builds not checked

unfix      	depo

fix        	1coolB mobile temp/berendsen 298.0 298.0 0.1
fix        	2coolB insert temp/berendsen 298.0 298.0 0.1

run		2000
Per MPI rank memory allocation (min/avg/max) = 165.1 | 165.1 | 165.1 Mbytes
   Step        Atoms      v_nmobile      v_ninject         Temp          TotEng    
    190000        1085   955            34             631.02694     -5190.1345    
    190100        1085   955            34             538.95287     -5207.7833    
    190200        1085   955            34             508.51148     -5221.763     
    190300        1085   955            34             468.42884     -5233.5939    
    190400        1085   955            34             461.7005      -5243.8377    
    190500        1085   955            34             428.59616     -5252.5129    
    190600        1085   955            34             401.11392     -5259.4906    
    190700        1085   955            34             370.76482     -5265.2461    
    190800        1085   955            34             367.93087     -5269.9895    
    190900        1085   955            34             348.09933     -5273.8735    
    191000        1085   955            34             335.66181     -5276.8686    
    191100        1085   955            34             333.31697     -5279.7733    
    191200        1085   955            34             325.5235      -5281.6711    
    191300        1085   955            34             320.37268     -5282.6502    
    191400        1085   955            34             313.68439     -5283.9275    
    191500        1085   955            34             318.67984     -5285.45      
    191600        1085   955            34             317.47524     -5287.0981    
    191700        1085   955            34             308.27684     -5288.5817    
    191800        1085   955            34             319.71564     -5289.8112    
    191900        1085   955            34             316.55486     -5290.9334    
    192000        1085   955            34             310.37197     -5291.9699    
Loop time of 379.716 on 1 procs for 2000 steps with 1085 atoms

Performance: 0.228 ns/day, 105.477 hours/ns, 5.267 timesteps/s, 5.715 katom-step/s
99.6% CPU use with 1 MPI tasks x 1 OpenMP threads

MPI task timing breakdown:
Section |  min time  |  avg time  |  max time  |%varavg| %total
---------------------------------------------------------------
Pair    | 379.09     | 379.09     | 379.09     |   0.0 | 99.84
Neigh   | 0.091899   | 0.091899   | 0.091899   |   0.0 |  0.02
Comm    | 0.30154    | 0.30154    | 0.30154    |   0.0 |  0.08
Output  | 0.022016   | 0.022016   | 0.022016   |   0.0 |  0.01
Modify  | 0.17737    | 0.17737    | 0.17737    |   0.0 |  0.05
Other   |            | 0.03327    |            |       |  0.01

Nlocal:           1085 ave        1085 max        1085 min
Histogram: 1 0 0 0 0 0 0 0 0 0
Nghost:           1863 ave        1863 max        1863 min
Histogram: 1 0 0 0 0 0 0 0 0 0
Neighs:              0 ave           0 max           0 min
Histogram: 1 0 0 0 0 0 0 0 0 0
FullNghs:        76022 ave       76022 max       76022 min
Histogram: 1 0 0 0 0 0 0 0 0 0

Total # of neighbors = 76022
Ave neighs/atom = 70.066359
Neighbor list builds = 400
Dangerous builds not checked

unfix           1coolB
unfix           2coolB

delete_atoms    region del
Deleted 0 atoms, new total = 1085

next		a
jump		in_cpu.lammps loop

variable    	c equal ${c}+1
variable    	c equal 48+1
variable    	deposeed equal floor(random(1,3245,${c}))
variable    	deposeed equal floor(random(1,3245,49))

fix		depo insert deposit 1 2 1000 ${deposeed} region insert vx 0.0 0.0 vy ${vely} ${vely} vz -${velz} -${velz} units box
fix		depo insert deposit 1 2 1000 1323 region insert vx 0.0 0.0 vy ${vely} ${vely} vz -${velz} -${velz} units box
fix		depo insert deposit 1 2 1000 1323 region insert vx 0.0 0.0 vy 0 ${vely} vz -${velz} -${velz} units box
fix		depo insert deposit 1 2 1000 1323 region insert vx 0.0 0.0 vy 0 0 vz -${velz} -${velz} units box
fix		depo insert deposit 1 2 1000 1323 region insert vx 0.0 0.0 vy 0 0 vz -219.776405126004 -${velz} units box
fix		depo insert deposit 1 2 1000 1323 region insert vx 0.0 0.0 vy 0 0 vz -219.776405126004 -219.776405126004 units box

fix     	2 mobile nve
fix             3 insert nve

run		2000
Per MPI rank memory allocation (min/avg/max) = 165.2 | 165.2 | 165.2 Mbytes
   Step        Atoms      v_nmobile      v_ninject         Temp          TotEng    
    192000        1085   955            34             310.37197     -5291.9699    
    192100        1086   955            35             320.20885     -5292.0098    
    192200        1086   955            35             400.09632     -5273.575     
    192300        1086   955            35             571.57336     -5243.6564    
    192400        1086   955            35             603.2256      -5218.2794    
    192500        1086   955            35             644.78109     -5211.844     
    192600        1086   955            35             589.19859     -5210.5583    
    192700        1086   955            35             555.32315     -5204.4637    
    192800        1086   955            35             586.87341     -5203.163     
    192900        1086   955            35             594.97019     -5199.7545    
    193000        1086   955            35             577.12255     -5198.814     
    193100        1086   955            35             579.70876     -5198.8889    
    193200        1086   955            35             606.63874     -5197.2076    
    193300        1086   955            35             612.52762     -5197.3152    
    193400        1085   955            34             611.18749     -5197.272     
    193500        1085   955            34             603.76032     -5197.3682    
    193600        1085   955            34             642.02615     -5197.8664    
    193700        1085   955            34             614.7243      -5198.261     
    193800        1085   955            34             597.37246     -5198.0768    
    193900        1085   955            34             577.10546     -5198.3789    
    194000        1085   955            34             632.54909     -5198.0387    
Loop time of 380.629 on 1 procs for 2000 steps with 1085 atoms

Performance: 0.227 ns/day, 105.730 hours/ns, 5.254 timesteps/s, 5.701 katom-step/s
99.7% CPU use with 1 MPI tasks x 1 OpenMP threads

MPI task timing breakdown:
Section |  min time  |  avg time  |  max time  |%varavg| %total
---------------------------------------------------------------
Pair    | 379.77     | 379.77     | 379.77     |   0.0 | 99.77
Neigh   | 0.092611   | 0.092611   | 0.092611   |   0.0 |  0.02
Comm    | 0.33995    | 0.33995    | 0.33995    |   0.0 |  0.09
Output  | 0.014904   | 0.014904   | 0.014904   |   0.0 |  0.00
Modify  | 0.24852    | 0.24852    | 0.24852    |   0.0 |  0.07
Other   |            | 0.1612     |            |       |  0.04

Nlocal:           1085 ave        1085 max        1085 min
Histogram: 1 0 0 0 0 0 0 0 0 0
Nghost:           1860 ave        1860 max        1860 min
Histogram: 1 0 0 0 0 0 0 0 0 0
Neighs:              0 ave           0 max           0 min
Histogram: 1 0 0 0 0 0 0 0 0 0
FullNghs:        76774 ave       76774 max       76774 min
Histogram: 1 0 0 0 0 0 0 0 0 0

Total # of neighbors = 76774
Ave neighs/atom = 70.759447
Neighbor list builds = 400
Dangerous builds not checked

unfix      	depo

fix        	1coolB mobile temp/berendsen 298.0 298.0 0.1
fix        	2coolB insert temp/berendsen 298.0 298.0 0.1

run		2000
Per MPI rank memory allocation (min/avg/max) = 165.2 | 165.2 | 165.2 Mbytes
   Step        Atoms      v_nmobile      v_ninject         Temp          TotEng    
    194000        1085   955            34             632.54909     -5198.0387    
    194100        1085   955            34             541.13676     -5215.0902    
    194200        1085   955            34             486.84859     -5227.8236    
    194300        1085   955            34             472.12134     -5238.8183    
    194400        1085   955            34             431.48216     -5248.427     
    194500        1085   955            34             390.96678     -5255.2644    
    194600        1085   955            34             379.60399     -5261.1787    
    194700        1085   955            34             357.70205     -5265.623     
    194800        1085   955            34             360.08399     -5269.394     
    194900        1085   955            34             348.9604      -5273.0207    
    195000        1085   955            34             345.05437     -5276.2621    
    195100        1085   955            34             337.04779     -5278.8431    
    195200        1085   955            34             325.0213      -5280.5791    
    195300        1085   955            34             320.17039     -5282.405     
    195400        1085   955            34             322.851       -5284.1662    
    195500        1085   955            34             309.23648     -5285.1495    
    195600        1085   955            34             307.34365     -5285.5716    
    195700        1085   955            34             321.1958      -5286.4734    
    195800        1085   955            34             317.6605      -5288.1119    
    195900        1085   955            34             310.08741     -5289.3258    
    196000        1085   955            34             302.51841     -5290.2971    
Loop time of 380.692 on 1 procs for 2000 steps with 1085 atoms

Performance: 0.227 ns/day, 105.748 hours/ns, 5.254 timesteps/s, 5.700 katom-step/s
99.6% CPU use with 1 MPI tasks x 1 OpenMP threads

MPI task timing breakdown:
Section |  min time  |  avg time  |  max time  |%varavg| %total
---------------------------------------------------------------
Pair    | 380.07     | 380.07     | 380.07     |   0.0 | 99.84
Neigh   | 0.092713   | 0.092713   | 0.092713   |   0.0 |  0.02
Comm    | 0.30247    | 0.30247    | 0.30247    |   0.0 |  0.08
Output  | 0.017486   | 0.017486   | 0.017486   |   0.0 |  0.00
Modify  | 0.17821    | 0.17821    | 0.17821    |   0.0 |  0.05
Other   |            | 0.03334    |            |       |  0.01

Nlocal:           1085 ave        1085 max        1085 min
Histogram: 1 0 0 0 0 0 0 0 0 0
Nghost:           1879 ave        1879 max        1879 min
Histogram: 1 0 0 0 0 0 0 0 0 0
Neighs:              0 ave           0 max           0 min
Histogram: 1 0 0 0 0 0 0 0 0 0
FullNghs:        76140 ave       76140 max       76140 min
Histogram: 1 0 0 0 0 0 0 0 0 0

Total # of neighbors = 76140
Ave neighs/atom = 70.175115
Neighbor list builds = 400
Dangerous builds not checked

unfix           1coolB
unfix           2coolB

delete_atoms    region del
Deleted 0 atoms, new total = 1085

next		a
jump		in_cpu.lammps loop

variable    	c equal ${c}+1
variable    	c equal 49+1
variable    	deposeed equal floor(random(1,3245,${c}))
variable    	deposeed equal floor(random(1,3245,50))

fix		depo insert deposit 1 2 1000 ${deposeed} region insert vx 0.0 0.0 vy ${vely} ${vely} vz -${velz} -${velz} units box
fix		depo insert deposit 1 2 1000 3221 region insert vx 0.0 0.0 vy ${vely} ${vely} vz -${velz} -${velz} units box
fix		depo insert deposit 1 2 1000 3221 region insert vx 0.0 0.0 vy 0 ${vely} vz -${velz} -${velz} units box
fix		depo insert deposit 1 2 1000 3221 region insert vx 0.0 0.0 vy 0 0 vz -${velz} -${velz} units box
fix		depo insert deposit 1 2 1000 3221 region insert vx 0.0 0.0 vy 0 0 vz -219.776405126004 -${velz} units box
fix		depo insert deposit 1 2 1000 3221 region insert vx 0.0 0.0 vy 0 0 vz -219.776405126004 -219.776405126004 units box

fix     	2 mobile nve
fix             3 insert nve

run		2000
Per MPI rank memory allocation (min/avg/max) = 165.4 | 165.4 | 165.4 Mbytes
   Step        Atoms      v_nmobile      v_ninject         Temp          TotEng    
    196000        1085   955            34             302.51841     -5290.2971    
    196100        1086   955            35             304.54185     -5290.3663    
    196200        1086   955            35             860.61903     -5213.4169    
    196300        1086   955            35             772.5576      -5212.931     
    196400        1086   955            35             713.26463     -5207.5861    
    196500        1086   955            35             645.25117     -5200.4753    
    196600        1086   955            35             639.68084     -5191.484     
    196700        1086   955            35             618.56866     -5191.574     
    196800        1086   955            35             612.89099     -5191.7167    
    196900        1086   955            35             595.6977      -5191.9853    
    197000        1086   955            35             597.10502     -5192.1192    
    197100        1086   955            35             584.90359     -5192.1759    
    197200        1086   955            35             583.2969      -5192.049     
    197300        1086   955            35             598.64924     -5192.0566    
    197400        1086   955            35             602.10572     -5191.8468    
    197500        1086   955            35             621.84288     -5191.8553    
    197600        1086   955            35             612.11908     -5191.5903    
    197700        1086   955            35             625.98004     -5191.7833    
    197800        1086   955            35             625.21645     -5191.5776    
    197900        1086   955            35             603.09452     -5191.4909    
    198000        1086   955            35             605.52802     -5191.5493    
Loop time of 380.515 on 1 procs for 2000 steps with 1086 atoms

Performance: 0.227 ns/day, 105.699 hours/ns, 5.256 timesteps/s, 5.708 katom-step/s
99.7% CPU use with 1 MPI tasks x 1 OpenMP threads

MPI task timing breakdown:
Section |  min time  |  avg time  |  max time  |%varavg| %total
---------------------------------------------------------------
Pair    | 379.65     | 379.65     | 379.65     |   0.0 | 99.77
Neigh   | 0.092141   | 0.092141   | 0.092141   |   0.0 |  0.02
Comm    | 0.34383    | 0.34383    | 0.34383    |   0.0 |  0.09
Output  | 0.014894   | 0.014894   | 0.014894   |   0.0 |  0.00
Modify  | 0.25087    | 0.25087    | 0.25087    |   0.0 |  0.07
Other   |            | 0.1623     |            |       |  0.04

Nlocal:           1086 ave        1086 max        1086 min
Histogram: 1 0 0 0 0 0 0 0 0 0
Nghost:           1862 ave        1862 max        1862 min
Histogram: 1 0 0 0 0 0 0 0 0 0
Neighs:              0 ave           0 max           0 min
Histogram: 1 0 0 0 0 0 0 0 0 0
FullNghs:        76516 ave       76516 max       76516 min
Histogram: 1 0 0 0 0 0 0 0 0 0

Total # of neighbors = 76516
Ave neighs/atom = 70.456722
Neighbor list builds = 400
Dangerous builds not checked

unfix      	depo

fix        	1coolB mobile temp/berendsen 298.0 298.0 0.1
fix        	2coolB insert temp/berendsen 298.0 298.0 0.1

run		2000
Per MPI rank memory allocation (min/avg/max) = 165.4 | 165.4 | 165.4 Mbytes
   Step        Atoms      v_nmobile      v_ninject         Temp          TotEng    
    198000        1086   955            35             605.52802     -5191.5493    
    198100        1086   955            35             535.41788     -5208.3491    
    198200        1086   955            35             492.41007     -5221.5696    
    198300        1086   955            35             446.02755     -5233.0694    
    198400        1086   955            35             424.66704     -5242.09      
    198500        1086   955            35             398.02301     -5249.0399    
    198600        1086   955            35             380.98715     -5254.5889    
    198700        1086   955            35             381.82563     -5259.8767    
    198800        1086   955            35             370.03658     -5264.4078    
    198900        1086   955            35             363.451       -5268.3406    
    199000        1086   955            35             342.2892      -5270.9456    
    199100        1086   955            35             343.1252      -5273.6504    
    199200        1086   955            35             342.14406     -5276.6071    
    199300        1086   955            35             317.28106     -5278.8805    
    199400        1086   955            35             311.88792     -5280.2095    
    199500        1086   955            35             311.59893     -5281.3681    
    199600        1086   955            35             307.5272      -5282.4959    
    199700        1086   955            35             310.99218     -5283.1727    
    199800        1086   955            35             301.83872     -5283.9981    
    199900        1086   955            35             307.96238     -5285.0134    
    200000        1086   955            35             311.52137     -5285.2829    
Loop time of 381.219 on 1 procs for 2000 steps with 1086 atoms

Performance: 0.227 ns/day, 105.894 hours/ns, 5.246 timesteps/s, 5.698 katom-step/s
99.7% CPU use with 1 MPI tasks x 1 OpenMP threads

MPI task timing breakdown:
Section |  min time  |  avg time  |  max time  |%varavg| %total
---------------------------------------------------------------
Pair    | 380.59     | 380.59     | 380.59     |   0.0 | 99.84
Neigh   | 0.091724   | 0.091724   | 0.091724   |   0.0 |  0.02
Comm    | 0.30193    | 0.30193    | 0.30193    |   0.0 |  0.08
Output  | 0.020035   | 0.020035   | 0.020035   |   0.0 |  0.01
Modify  | 0.17824    | 0.17824    | 0.17824    |   0.0 |  0.05
Other   |            | 0.03323    |            |       |  0.01

Nlocal:           1086 ave        1086 max        1086 min
Histogram: 1 0 0 0 0 0 0 0 0 0
Nghost:           1869 ave        1869 max        1869 min
Histogram: 1 0 0 0 0 0 0 0 0 0
Neighs:              0 ave           0 max           0 min
Histogram: 1 0 0 0 0 0 0 0 0 0
FullNghs:        76830 ave       76830 max       76830 min
Histogram: 1 0 0 0 0 0 0 0 0 0

Total # of neighbors = 76830
Ave neighs/atom = 70.745856
Neighbor list builds = 400
Dangerous builds not checked

unfix           1coolB
unfix           2coolB

delete_atoms    region del
Deleted 0 atoms, new total = 1086

next		a
jump		in_cpu.lammps loop

variable    	c equal ${c}+1
variable    	c equal 50+1
variable    	deposeed equal floor(random(1,3245,${c}))
variable    	deposeed equal floor(random(1,3245,51))

fix		depo insert deposit 1 2 1000 ${deposeed} region insert vx 0.0 0.0 vy ${vely} ${vely} vz -${velz} -${velz} units box
fix		depo insert deposit 1 2 1000 2990 region insert vx 0.0 0.0 vy ${vely} ${vely} vz -${velz} -${velz} units box
fix		depo insert deposit 1 2 1000 2990 region insert vx 0.0 0.0 vy 0 ${vely} vz -${velz} -${velz} units box
fix		depo insert deposit 1 2 1000 2990 region insert vx 0.0 0.0 vy 0 0 vz -${velz} -${velz} units box
fix		depo insert deposit 1 2 1000 2990 region insert vx 0.0 0.0 vy 0 0 vz -219.776405126004 -${velz} units box
fix		depo insert deposit 1 2 1000 2990 region insert vx 0.0 0.0 vy 0 0 vz -219.776405126004 -219.776405126004 units box

fix     	2 mobile nve
fix             3 insert nve

run		2000
Per MPI rank memory allocation (min/avg/max) = 165.3 | 165.3 | 165.3 Mbytes
   Step        Atoms      v_nmobile      v_ninject         Temp          TotEng    
    200000        1086   955            35             311.52137     -5285.2829    
    200100        1087   955            36             322.34614     -5285.3461    
    200200        1087   955            36             677.10471     -5234.496     
    200300        1087   955            36             750.83679     -5211.9429    
    200400        1087   955            36             721.25453     -5204.0465    
    200500        1087   955            36             649.82995     -5203.7248    
    200600        1087   955            36             622.29301     -5197.3838    
    200700        1087   955            36             625.01233     -5192.8557    
    200800        1087   955            36             611.57392     -5190.723     
    200900        1087   955            36             614.30592     -5188.8744    
    201000        1087   955            36             608.44673     -5188.3787    
    201100        1087   955            36             602.37613     -5187.4366    
    201200        1087   955            36             600.1225      -5187.6101    
    201300        1087   955            36             607.35688     -5187.6154    
    201400        1087   955            36             634.66554     -5187.0701    
    201500        1087   955            36             633.34487     -5186.8467    
    201600        1087   955            36             636.25573     -5186.7852    
    201700        1087   955            36             630.38008     -5187.5978    
    201800        1087   955            36             616.78433     -5187.8695    
    201900        1087   955            36             633.33433     -5187.1728    
    202000        1087   955            36             610.78762     -5187.0655    
Loop time of 383.009 on 1 procs for 2000 steps with 1087 atoms

Performance: 0.226 ns/day, 106.391 hours/ns, 5.222 timesteps/s, 5.676 katom-step/s
99.6% CPU use with 1 MPI tasks x 1 OpenMP threads

MPI task timing breakdown:
Section |  min time  |  avg time  |  max time  |%varavg| %total
---------------------------------------------------------------
Pair    | 382.11     | 382.11     | 382.11     |   0.0 | 99.76
Neigh   | 0.092857   | 0.092857   | 0.092857   |   0.0 |  0.02
Comm    | 0.34376    | 0.34376    | 0.34376    |   0.0 |  0.09
Output  | 0.051087   | 0.051087   | 0.051087   |   0.0 |  0.01
Modify  | 0.25054    | 0.25054    | 0.25054    |   0.0 |  0.07
Other   |            | 0.1627     |            |       |  0.04

Nlocal:           1087 ave        1087 max        1087 min
Histogram: 1 0 0 0 0 0 0 0 0 0
Nghost:           1859 ave        1859 max        1859 min
Histogram: 1 0 0 0 0 0 0 0 0 0
Neighs:              0 ave           0 max           0 min
Histogram: 1 0 0 0 0 0 0 0 0 0
FullNghs:        78248 ave       78248 max       78248 min
Histogram: 1 0 0 0 0 0 0 0 0 0

Total # of neighbors = 78248
Ave neighs/atom = 71.985281
Neighbor list builds = 400
Dangerous builds not checked

unfix      	depo

fix        	1coolB mobile temp/berendsen 298.0 298.0 0.1
fix        	2coolB insert temp/berendsen 298.0 298.0 0.1

run		2000
Per MPI rank memory allocation (min/avg/max) = 165.4 | 165.4 | 165.4 Mbytes
   Step        Atoms      v_nmobile      v_ninject         Temp          TotEng    
    202000        1087   955            36             610.78762     -5187.0655    
    202100        1087   955            36             522.34577     -5202.7126    
    202200        1087   955            36             493.69257     -5215.964     
    202300        1087   955            36             446.38539     -5226.8933    
    202400        1087   955            36             431.5521      -5236.1856    
    202500        1087   955            36             394.4533      -5243.5315    
    202600        1087   955            36             386.05539     -5249.3113    
    202700        1087   955            36             376.04708     -5254.0175    
    202800        1087   955            36             360.48377     -5257.9909    
    202900        1087   955            36             360.09665     -5261.8777    
    203000        1087   955            36             344.72464     -5264.733     
    203100        1087   955            36             331.98644     -5267.2103    
    203200        1087   955            36             332.12416     -5269.6341    
    203300        1087   955            36             326.155       -5271.7097    
    203400        1087   955            36             330.70556     -5273.4132    
    203500        1087   955            36             315.7533      -5274.4243    
    203600        1087   955            36             323.35311     -5275.3339    
    203700        1087   955            36             322.2446      -5276.6101    
    203800        1087   955            36             323.08568     -5278.0723    
    203900        1087   955            36             325.97042     -5279.459     
    204000        1087   955            36             305.70977     -5279.9534    
Loop time of 384.612 on 1 procs for 2000 steps with 1087 atoms

Performance: 0.225 ns/day, 106.837 hours/ns, 5.200 timesteps/s, 5.652 katom-step/s
99.6% CPU use with 1 MPI tasks x 1 OpenMP threads

MPI task timing breakdown:
Section |  min time  |  avg time  |  max time  |%varavg| %total
---------------------------------------------------------------
Pair    | 383.99     | 383.99     | 383.99     |   0.0 | 99.84
Neigh   | 0.091898   | 0.091898   | 0.091898   |   0.0 |  0.02
Comm    | 0.29717    | 0.29717    | 0.29717    |   0.0 |  0.08
Output  | 0.032694   | 0.032694   | 0.032694   |   0.0 |  0.01
Modify  | 0.17248    | 0.17248    | 0.17248    |   0.0 |  0.04
Other   |            | 0.03196    |            |       |  0.01

Nlocal:           1087 ave        1087 max        1087 min
Histogram: 1 0 0 0 0 0 0 0 0 0
Nghost:           1866 ave        1866 max        1866 min
Histogram: 1 0 0 0 0 0 0 0 0 0
Neighs:              0 ave           0 max           0 min
Histogram: 1 0 0 0 0 0 0 0 0 0
FullNghs:        78382 ave       78382 max       78382 min
Histogram: 1 0 0 0 0 0 0 0 0 0

Total # of neighbors = 78382
Ave neighs/atom = 72.108556
Neighbor list builds = 400
Dangerous builds not checked

unfix           1coolB
unfix           2coolB

delete_atoms    region del
Deleted 0 atoms, new total = 1087

next		a
jump		in_cpu.lammps loop

variable    	c equal ${c}+1
variable    	c equal 51+1
variable    	deposeed equal floor(random(1,3245,${c}))
variable    	deposeed equal floor(random(1,3245,52))

fix		depo insert deposit 1 2 1000 ${deposeed} region insert vx 0.0 0.0 vy ${vely} ${vely} vz -${velz} -${velz} units box
fix		depo insert deposit 1 2 1000 1940 region insert vx 0.0 0.0 vy ${vely} ${vely} vz -${velz} -${velz} units box
fix		depo insert deposit 1 2 1000 1940 region insert vx 0.0 0.0 vy 0 ${vely} vz -${velz} -${velz} units box
fix		depo insert deposit 1 2 1000 1940 region insert vx 0.0 0.0 vy 0 0 vz -${velz} -${velz} units box
fix		depo insert deposit 1 2 1000 1940 region insert vx 0.0 0.0 vy 0 0 vz -219.776405126004 -${velz} units box
fix		depo insert deposit 1 2 1000 1940 region insert vx 0.0 0.0 vy 0 0 vz -219.776405126004 -219.776405126004 units box

fix     	2 mobile nve
fix             3 insert nve

run		2000
Per MPI rank memory allocation (min/avg/max) = 165.4 | 165.4 | 165.4 Mbytes
   Step        Atoms      v_nmobile      v_ninject         Temp          TotEng    
    204000        1087   955            36             305.70977     -5279.9534    
    204100        1088   955            37             319.45942     -5279.8656    
    204200        1088   955            37             856.58142     -5199.0429    
    204300        1088   955            37             748.6879      -5197.1428    
    204400        1088   955            37             733.78243     -5183.6257    
    204500        1088   955            37             722.76287     -5180.5455    
    204600        1088   955            37             679.39374     -5180.4905    
    204700        1088   955            37             651.51393     -5180.6755    
    204800        1088   955            37             623.03939     -5181.0644    
    204900        1088   955            37             620.66862     -5181.1774    
    205000        1088   955            37             623.15815     -5181.0257    
    205100        1088   955            37             628.06023     -5181.0288    
    205200        1088   955            37             663.93729     -5181.3351    
    205300        1088   955            37             652.2983      -5181.2213    
    205400        1088   955            37             679.22178     -5180.8535    
    205500        1088   955            37             684.56412     -5180.7658    
    205600        1088   955            37             670.2616      -5180.813     
    205700        1088   955            37             660.7497      -5180.8306    
    205800        1088   955            37             676.70601     -5180.8375    
    205900        1088   955            37             695.2421      -5180.6483    
    206000        1088   955            37             660.16602     -5180.6978    
Loop time of 385.413 on 1 procs for 2000 steps with 1088 atoms

Performance: 0.224 ns/day, 107.059 hours/ns, 5.189 timesteps/s, 5.646 katom-step/s
99.6% CPU use with 1 MPI tasks x 1 OpenMP threads

MPI task timing breakdown:
Section |  min time  |  avg time  |  max time  |%varavg| %total
---------------------------------------------------------------
Pair    | 384.54     | 384.54     | 384.54     |   0.0 | 99.77
Neigh   | 0.092821   | 0.092821   | 0.092821   |   0.0 |  0.02
Comm    | 0.34288    | 0.34288    | 0.34288    |   0.0 |  0.09
Output  | 0.024798   | 0.024798   | 0.024798   |   0.0 |  0.01
Modify  | 0.25031    | 0.25031    | 0.25031    |   0.0 |  0.06
Other   |            | 0.1628     |            |       |  0.04

Nlocal:           1088 ave        1088 max        1088 min
Histogram: 1 0 0 0 0 0 0 0 0 0
Nghost:           1887 ave        1887 max        1887 min
Histogram: 1 0 0 0 0 0 0 0 0 0
Neighs:              0 ave           0 max           0 min
Histogram: 1 0 0 0 0 0 0 0 0 0
FullNghs:        78392 ave       78392 max       78392 min
Histogram: 1 0 0 0 0 0 0 0 0 0

Total # of neighbors = 78392
Ave neighs/atom = 72.051471
Neighbor list builds = 400
Dangerous builds not checked

unfix      	depo

fix        	1coolB mobile temp/berendsen 298.0 298.0 0.1
fix        	2coolB insert temp/berendsen 298.0 298.0 0.1

run		2000
Per MPI rank memory allocation (min/avg/max) = 165.7 | 165.7 | 165.7 Mbytes
   Step        Atoms      v_nmobile      v_ninject         Temp          TotEng    
    206000        1088   955            37             660.16602     -5180.6978    
    206100        1088   955            37             559.09051     -5199.4105    
    206200        1088   955            37             499.62778     -5212.8788    
    206300        1088   955            37             465.19046     -5223.6521    
    206400        1088   955            37             428.80428     -5233.3852    
    206500        1088   955            37             393.38251     -5241.4562    
    206600        1088   955            37             381.01073     -5247.2722    
    206700        1088   955            37             358.19634     -5251.413     
    206800        1088   955            37             347.60424     -5254.9759    
    206900        1088   955            37             346.17473     -5257.8619    
    207000        1088   955            37             332.24542     -5260.4903    
    207100        1088   955            37             327.63565     -5262.527     
    207200        1088   955            37             324.8963      -5264.1442    
    207300        1088   955            37             324.65906     -5265.678     
    207400        1088   955            37             338.43359     -5267.4501    
    207500        1088   955            37             326.13804     -5269.7541    
    207600        1088   955            37             311.00841     -5270.92      
    207700        1088   955            37             317.20202     -5272.3265    
    207800        1088   955            37             316.80013     -5273.8506    
    207900        1088   955            37             314.22057     -5274.5497    
    208000        1088   955            37             315.76754     -5275.3174    
Loop time of 385.357 on 1 procs for 2000 steps with 1088 atoms

Performance: 0.224 ns/day, 107.044 hours/ns, 5.190 timesteps/s, 5.647 katom-step/s
99.6% CPU use with 1 MPI tasks x 1 OpenMP threads

MPI task timing breakdown:
Section |  min time  |  avg time  |  max time  |%varavg| %total
---------------------------------------------------------------
Pair    | 384.72     | 384.72     | 384.72     |   0.0 | 99.84
Neigh   | 0.092404   | 0.092404   | 0.092404   |   0.0 |  0.02
Comm    | 0.30192    | 0.30192    | 0.30192    |   0.0 |  0.08
Output  | 0.027993   | 0.027993   | 0.027993   |   0.0 |  0.01
Modify  | 0.17815    | 0.17815    | 0.17815    |   0.0 |  0.05
Other   |            | 0.03337    |            |       |  0.01

Nlocal:           1088 ave        1088 max        1088 min
Histogram: 1 0 0 0 0 0 0 0 0 0
Nghost:           1877 ave        1877 max        1877 min
Histogram: 1 0 0 0 0 0 0 0 0 0
Neighs:              0 ave           0 max           0 min
Histogram: 1 0 0 0 0 0 0 0 0 0
FullNghs:        78196 ave       78196 max       78196 min
Histogram: 1 0 0 0 0 0 0 0 0 0

Total # of neighbors = 78196
Ave neighs/atom = 71.871324
Neighbor list builds = 400
Dangerous builds not checked

unfix           1coolB
unfix           2coolB

delete_atoms    region del
Deleted 1 atoms, new total = 1087

next		a
jump		in_cpu.lammps loop

variable    	c equal ${c}+1
variable    	c equal 52+1
variable    	deposeed equal floor(random(1,3245,${c}))
variable    	deposeed equal floor(random(1,3245,53))

fix		depo insert deposit 1 2 1000 ${deposeed} region insert vx 0.0 0.0 vy ${vely} ${vely} vz -${velz} -${velz} units box
fix		depo insert deposit 1 2 1000 1188 region insert vx 0.0 0.0 vy ${vely} ${vely} vz -${velz} -${velz} units box
fix		depo insert deposit 1 2 1000 1188 region insert vx 0.0 0.0 vy 0 ${vely} vz -${velz} -${velz} units box
fix		depo insert deposit 1 2 1000 1188 region insert vx 0.0 0.0 vy 0 0 vz -${velz} -${velz} units box
fix		depo insert deposit 1 2 1000 1188 region insert vx 0.0 0.0 vy 0 0 vz -219.776405126004 -${velz} units box
fix		depo insert deposit 1 2 1000 1188 region insert vx 0.0 0.0 vy 0 0 vz -219.776405126004 -219.776405126004 units box

fix     	2 mobile nve
fix             3 insert nve

run		2000
Per MPI rank memory allocation (min/avg/max) = 165.7 | 165.7 | 165.7 Mbytes
   Step        Atoms      v_nmobile      v_ninject         Temp          TotEng    
    208000        1087   955            36             315.76754     -5275.2681    
    208100        1088   955            37             315.8563      -5275.5231    
    208200        1088   955            37             347.39168     -5269.7025    
    208300        1088   955            37             780.44434     -5201.2734    
    208400        1088   955            37             859.13051     -5179.636     
    208500        1088   955            37             794.89771     -5179.1785    
    208600        1088   955            37             706.8827      -5177.1948    
    208700        1088   955            37             699.67617     -5177.5676    
    208800        1088   955            37             644.61938     -5177.8268    
    208900        1088   955            37             646.5176      -5177.2842    
    209000        1088   955            37             606.14702     -5177.1274    
    209100        1088   955            37             638.90577     -5176.6464    
    209200        1088   955            37             634.47954     -5176.6584    
    209300        1088   955            37             657.70936     -5177.333     
    209400        1088   955            37             658.47608     -5177.0064    
    209500        1088   955            37             639.61761     -5176.7943    
    209600        1088   955            37             673.29073     -5176.7251    
    209700        1088   955            37             651.82189     -5176.8316    
    209800        1088   955            37             638.43659     -5176.4038    
    209900        1088   955            37             660.36657     -5176.2685    
    210000        1088   955            37             634.86904     -5176.3264    
Loop time of 385.776 on 1 procs for 2000 steps with 1088 atoms

Performance: 0.224 ns/day, 107.160 hours/ns, 5.184 timesteps/s, 5.641 katom-step/s
99.6% CPU use with 1 MPI tasks x 1 OpenMP threads

MPI task timing breakdown:
Section |  min time  |  avg time  |  max time  |%varavg| %total
---------------------------------------------------------------
Pair    | 384.91     | 384.91     | 384.91     |   0.0 | 99.78
Neigh   | 0.092391   | 0.092391   | 0.092391   |   0.0 |  0.02
Comm    | 0.34417    | 0.34417    | 0.34417    |   0.0 |  0.09
Output  | 0.014813   | 0.014813   | 0.014813   |   0.0 |  0.00
Modify  | 0.25028    | 0.25028    | 0.25028    |   0.0 |  0.06
Other   |            | 0.1624     |            |       |  0.04

Nlocal:           1088 ave        1088 max        1088 min
Histogram: 1 0 0 0 0 0 0 0 0 0
Nghost:           1877 ave        1877 max        1877 min
Histogram: 1 0 0 0 0 0 0 0 0 0
Neighs:              0 ave           0 max           0 min
Histogram: 1 0 0 0 0 0 0 0 0 0
FullNghs:        79066 ave       79066 max       79066 min
Histogram: 1 0 0 0 0 0 0 0 0 0

Total # of neighbors = 79066
Ave neighs/atom = 72.670956
Neighbor list builds = 400
Dangerous builds not checked

unfix      	depo

fix        	1coolB mobile temp/berendsen 298.0 298.0 0.1
fix        	2coolB insert temp/berendsen 298.0 298.0 0.1

run		2000
Per MPI rank memory allocation (min/avg/max) = 166 | 166 | 166 Mbytes
   Step        Atoms      v_nmobile      v_ninject         Temp          TotEng    
    210000        1088   955            37             634.86904     -5176.3264    
    210100        1088   955            37             551.09586     -5195.0951    
    210200        1088   955            37             510.25738     -5209.7435    
    210300        1088   955            37             463.48935     -5221.5491    
    210400        1088   955            37             427.45682     -5230.0355    
    210500        1088   955            37             404.29427     -5237.4471    
    210600        1088   955            37             391.36829     -5243.4759    
    210700        1088   955            37             370.40845     -5248.7722    
    210800        1088   955            37             364.46801     -5252.8426    
    210900        1088   955            37             358.63209     -5256.7875    
    211000        1088   955            37             350.40896     -5259.8608    
    211100        1088   955            37             334.59077     -5262.573     
    211200        1088   955            37             342.13384     -5264.7561    
    211300        1088   955            37             337.8686      -5267.2057    
    211400        1088   955            37             312.32474     -5268.7908    
    211500        1088   955            37             317.24652     -5270.1094    
    211600        1088   955            37             313.49677     -5271.0456    
    211700        1088   955            37             314.79795     -5272.3841    
    211800        1088   955            37             306.72226     -5273.2429    
    211900        1088   955            37             310.5284      -5273.7793    
    212000        1088   955            37             315.27412     -5274.7089    
Loop time of 386.745 on 1 procs for 2000 steps with 1088 atoms

Performance: 0.223 ns/day, 107.429 hours/ns, 5.171 timesteps/s, 5.626 katom-step/s
99.6% CPU use with 1 MPI tasks x 1 OpenMP threads

MPI task timing breakdown:
Section |  min time  |  avg time  |  max time  |%varavg| %total
---------------------------------------------------------------
Pair    | 386.05     | 386.05     | 386.05     |   0.0 | 99.82
Neigh   | 0.093465   | 0.093465   | 0.093465   |   0.0 |  0.02
Comm    | 0.30159    | 0.30159    | 0.30159    |   0.0 |  0.08
Output  | 0.090325   | 0.090325   | 0.090325   |   0.0 |  0.02
Modify  | 0.17795    | 0.17795    | 0.17795    |   0.0 |  0.05
Other   |            | 0.03322    |            |       |  0.01

Nlocal:           1088 ave        1088 max        1088 min
Histogram: 1 0 0 0 0 0 0 0 0 0
Nghost:           1865 ave        1865 max        1865 min
Histogram: 1 0 0 0 0 0 0 0 0 0
Neighs:              0 ave           0 max           0 min
Histogram: 1 0 0 0 0 0 0 0 0 0
FullNghs:        79616 ave       79616 max       79616 min
Histogram: 1 0 0 0 0 0 0 0 0 0

Total # of neighbors = 79616
Ave neighs/atom = 73.176471
Neighbor list builds = 400
Dangerous builds not checked

unfix           1coolB
unfix           2coolB

delete_atoms    region del
Deleted 0 atoms, new total = 1088

next		a
jump		in_cpu.lammps loop

variable    	c equal ${c}+1
variable    	c equal 53+1
variable    	deposeed equal floor(random(1,3245,${c}))
variable    	deposeed equal floor(random(1,3245,54))

fix		depo insert deposit 1 2 1000 ${deposeed} region insert vx 0.0 0.0 vy ${vely} ${vely} vz -${velz} -${velz} units box
fix		depo insert deposit 1 2 1000 2192 region insert vx 0.0 0.0 vy ${vely} ${vely} vz -${velz} -${velz} units box
fix		depo insert deposit 1 2 1000 2192 region insert vx 0.0 0.0 vy 0 ${vely} vz -${velz} -${velz} units box
fix		depo insert deposit 1 2 1000 2192 region insert vx 0.0 0.0 vy 0 0 vz -${velz} -${velz} units box
fix		depo insert deposit 1 2 1000 2192 region insert vx 0.0 0.0 vy 0 0 vz -219.776405126004 -${velz} units box
fix		depo insert deposit 1 2 1000 2192 region insert vx 0.0 0.0 vy 0 0 vz -219.776405126004 -219.776405126004 units box

fix     	2 mobile nve
fix             3 insert nve

run		2000
Per MPI rank memory allocation (min/avg/max) = 166 | 166 | 166 Mbytes
   Step        Atoms      v_nmobile      v_ninject         Temp          TotEng    
    212000        1088   955            37             315.27412     -5274.7089    
    212100        1089   955            38             319.43455     -5274.768     
    212200        1089   955            38             514.28661     -5245.6474    
    212300        1089   955            38             756.52374     -5208.06      
    212400        1089   955            38             727.41023     -5196.9384    
    212500        1089   955            38             785.78294     -5177.196     
    212600        1089   955            38             702.72201     -5177.884     
    212700        1089   955            38             636.70449     -5177.6156    
    212800        1089   955            38             616.98504     -5178.1238    
    212900        1089   955            38             641.31874     -5177.764     
    213000        1089   955            38             631.39202     -5176.9033    
    213100        1089   955            38             657.53575     -5176.7667    
    213200        1089   955            38             635.61249     -5176.6285    
    213300        1089   955            38             624.74566     -5176.5429    
    213400        1089   955            38             636.41106     -5176.6843    
    213500        1089   955            38             643.51268     -5176.2752    
    213600        1089   955            38             667.53335     -5176.2577    
    213700        1089   955            38             650.9191      -5175.7145    
    213800        1089   955            38             641.62705     -5175.5205    
    213900        1089   955            38             648.75099     -5175.8623    
    214000        1089   955            38             628.08037     -5175.91      
Loop time of 387.13 on 1 procs for 2000 steps with 1089 atoms

Performance: 0.223 ns/day, 107.536 hours/ns, 5.166 timesteps/s, 5.626 katom-step/s
99.6% CPU use with 1 MPI tasks x 1 OpenMP threads

MPI task timing breakdown:
Section |  min time  |  avg time  |  max time  |%varavg| %total
---------------------------------------------------------------
Pair    | 386.27     | 386.27     | 386.27     |   0.0 | 99.78
Neigh   | 0.093354   | 0.093354   | 0.093354   |   0.0 |  0.02
Comm    | 0.33912    | 0.33912    | 0.33912    |   0.0 |  0.09
Output  | 0.015402   | 0.015402   | 0.015402   |   0.0 |  0.00
Modify  | 0.24771    | 0.24771    | 0.24771    |   0.0 |  0.06
Other   |            | 0.1611     |            |       |  0.04

Nlocal:           1089 ave        1089 max        1089 min
Histogram: 1 0 0 0 0 0 0 0 0 0
Nghost:           1884 ave        1884 max        1884 min
Histogram: 1 0 0 0 0 0 0 0 0 0
Neighs:              0 ave           0 max           0 min
Histogram: 1 0 0 0 0 0 0 0 0 0
FullNghs:        79370 ave       79370 max       79370 min
Histogram: 1 0 0 0 0 0 0 0 0 0

Total # of neighbors = 79370
Ave neighs/atom = 72.883379
Neighbor list builds = 400
Dangerous builds not checked

unfix      	depo

fix        	1coolB mobile temp/berendsen 298.0 298.0 0.1
fix        	2coolB insert temp/berendsen 298.0 298.0 0.1

run		2000
Per MPI rank memory allocation (min/avg/max) = 166.3 | 166.3 | 166.3 Mbytes
   Step        Atoms      v_nmobile      v_ninject         Temp          TotEng    
    214000        1089   955            38             628.08037     -5175.91      
    214100        1089   955            38             541.60433     -5193.4841    
    214200        1089   955            38             515.32114     -5207.4358    
    214300        1089   955            38             475.33183     -5218.7231    
    214400        1089   955            38             425.99129     -5228.2921    
    214500        1089   955            38             411.56386     -5236.1103    
    214600        1089   955            38             379.29932     -5242.2236    
    214700        1089   955            38             362.57798     -5246.8516    
    214800        1089   955            38             374.41704     -5251.377     
    214900        1089   955            38             364.23828     -5255.9227    
    215000        1089   955            38             351.08296     -5259.7114    
    215100        1089   955            38             327.55042     -5262.2728    
    215200        1089   955            38             328.78019     -5264.6731    
    215300        1089   955            38             326.91785     -5267.1071    
    215400        1089   955            38             329.31651     -5268.8995    
    215500        1089   955            38             315.43489     -5270.5255    
    215600        1089   955            38             316.67399     -5271.7544    
    215700        1089   955            38             314.29696     -5272.6741    
    215800        1089   955            38             309.52889     -5273.7434    
    215900        1089   955            38             307.17129     -5274.9465    
    216000        1089   955            38             318.18144     -5275.7554    
Loop time of 387.58 on 1 procs for 2000 steps with 1089 atoms

Performance: 0.223 ns/day, 107.661 hours/ns, 5.160 timesteps/s, 5.619 katom-step/s
99.6% CPU use with 1 MPI tasks x 1 OpenMP threads

MPI task timing breakdown:
Section |  min time  |  avg time  |  max time  |%varavg| %total
---------------------------------------------------------------
Pair    | 386.94     | 386.94     | 386.94     |   0.0 | 99.84
Neigh   | 0.09281    | 0.09281    | 0.09281    |   0.0 |  0.02
Comm    | 0.30082    | 0.30082    | 0.30082    |   0.0 |  0.08
Output  | 0.030907   | 0.030907   | 0.030907   |   0.0 |  0.01
Modify  | 0.17798    | 0.17798    | 0.17798    |   0.0 |  0.05
Other   |            | 0.03337    |            |       |  0.01

Nlocal:           1089 ave        1089 max        1089 min
Histogram: 1 0 0 0 0 0 0 0 0 0
Nghost:           1887 ave        1887 max        1887 min
Histogram: 1 0 0 0 0 0 0 0 0 0
Neighs:              0 ave           0 max           0 min
Histogram: 1 0 0 0 0 0 0 0 0 0
FullNghs:        79664 ave       79664 max       79664 min
Histogram: 1 0 0 0 0 0 0 0 0 0

Total # of neighbors = 79664
Ave neighs/atom = 73.153352
Neighbor list builds = 400
Dangerous builds not checked

unfix           1coolB
unfix           2coolB

delete_atoms    region del
Deleted 0 atoms, new total = 1089

next		a
jump		in_cpu.lammps loop

variable    	c equal ${c}+1
variable    	c equal 54+1
variable    	deposeed equal floor(random(1,3245,${c}))
variable    	deposeed equal floor(random(1,3245,55))

fix		depo insert deposit 1 2 1000 ${deposeed} region insert vx 0.0 0.0 vy ${vely} ${vely} vz -${velz} -${velz} units box
fix		depo insert deposit 1 2 1000 2706 region insert vx 0.0 0.0 vy ${vely} ${vely} vz -${velz} -${velz} units box
fix		depo insert deposit 1 2 1000 2706 region insert vx 0.0 0.0 vy 0 ${vely} vz -${velz} -${velz} units box
fix		depo insert deposit 1 2 1000 2706 region insert vx 0.0 0.0 vy 0 0 vz -${velz} -${velz} units box
fix		depo insert deposit 1 2 1000 2706 region insert vx 0.0 0.0 vy 0 0 vz -219.776405126004 -${velz} units box
fix		depo insert deposit 1 2 1000 2706 region insert vx 0.0 0.0 vy 0 0 vz -219.776405126004 -219.776405126004 units box

fix     	2 mobile nve
fix             3 insert nve

run		2000
Per MPI rank memory allocation (min/avg/max) = 166.4 | 166.4 | 166.4 Mbytes
   Step        Atoms      v_nmobile      v_ninject         Temp          TotEng    
    216000        1089   955            38             318.18144     -5275.7554    
    216100        1090   955            39             309.68971     -5275.9475    
    216200        1090   955            39             304.51098     -5273.4111    
    216300        1090   955            39             440.56529     -5255.6574    
    216400        1090   955            39             485.78132     -5243.0399    
    216500        1090   955            39             471.06753     -5242.273     
    216600        1089   955            38             437.52109     -5241.9694    
    216700        1089   955            38             432.79708     -5241.8549    
    216800        1089   955            38             414.71052     -5241.8597    
    216900        1089   955            38             443.57138     -5241.8233    
    217000        1089   955            38             446.47313     -5241.8331    
    217100        1089   955            38             437.81396     -5242.0709    
    217200        1089   955            38             430.04938     -5242.4483    
    217300        1089   955            38             430.18965     -5242.6333    
    217400        1089   955            38             433.13951     -5242.3372    
    217500        1089   955            38             446.0134      -5242.2829    
    217600        1089   955            38             456.92897     -5242.2963    
    217700        1089   955            38             438.47777     -5242.4372    
    217800        1089   955            38             435.65148     -5242.3842    
    217900        1089   955            38             441.51686     -5242.3684    
    218000        1089   955            38             439.88819     -5242.4916    
Loop time of 387.233 on 1 procs for 2000 steps with 1089 atoms

Performance: 0.223 ns/day, 107.565 hours/ns, 5.165 timesteps/s, 5.625 katom-step/s
99.6% CPU use with 1 MPI tasks x 1 OpenMP threads

MPI task timing breakdown:
Section |  min time  |  avg time  |  max time  |%varavg| %total
---------------------------------------------------------------
Pair    | 386.37     | 386.37     | 386.37     |   0.0 | 99.78
Neigh   | 0.093131   | 0.093131   | 0.093131   |   0.0 |  0.02
Comm    | 0.34302    | 0.34302    | 0.34302    |   0.0 |  0.09
Output  | 0.01561    | 0.01561    | 0.01561    |   0.0 |  0.00
Modify  | 0.25014    | 0.25014    | 0.25014    |   0.0 |  0.06
Other   |            | 0.1625     |            |       |  0.04

Nlocal:           1089 ave        1089 max        1089 min
Histogram: 1 0 0 0 0 0 0 0 0 0
Nghost:           1864 ave        1864 max        1864 min
Histogram: 1 0 0 0 0 0 0 0 0 0
Neighs:              0 ave           0 max           0 min
Histogram: 1 0 0 0 0 0 0 0 0 0
FullNghs:        79012 ave       79012 max       79012 min
Histogram: 1 0 0 0 0 0 0 0 0 0

Total # of neighbors = 79012
Ave neighs/atom = 72.554637
Neighbor list builds = 400
Dangerous builds not checked

unfix      	depo

fix        	1coolB mobile temp/berendsen 298.0 298.0 0.1
fix        	2coolB insert temp/berendsen 298.0 298.0 0.1

run		2000
Per MPI rank memory allocation (min/avg/max) = 166.4 | 166.4 | 166.4 Mbytes
   Step        Atoms      v_nmobile      v_ninject         Temp          TotEng    
    218000        1089   955            38             439.88819     -5242.4916    
    218100        1089   955            38             402.07757     -5249.9747    
    218200        1089   955            38             381.165       -5255.988     
    218300        1089   955            38             375.82879     -5261.3441    
    218400        1089   955            38             362.01837     -5265.3833    
    218500        1089   955            38             343.53457     -5268.7146    
    218600        1089   955            38             333.71958     -5271.066     
    218700        1089   955            38             335.4815      -5273.2033    
    218800        1089   955            38             319.1321      -5274.8988    
    218900        1089   955            38             316.11091     -5276.2992    
    219000        1089   955            38             324.09209     -5277.8155    
    219100        1089   955            38             325.54534     -5279.1309    
    219200        1089   955            38             325.14384     -5280.5926    
    219300        1089   955            38             319.25228     -5282.0266    
    219400        1089   955            38             310.55985     -5283.2305    
    219500        1089   955            38             313.42604     -5284.7783    
    219600        1089   955            38             314.10501     -5286.1565    
    219700        1089   955            38             311.13518     -5286.9642    
    219800        1089   955            38             321.13762     -5287.7492    
    219900        1089   955            38             313.11292     -5289.054     
    220000        1089   955            38             308.49917     -5290.2267    
Loop time of 385.129 on 1 procs for 2000 steps with 1089 atoms

Performance: 0.224 ns/day, 106.980 hours/ns, 5.193 timesteps/s, 5.655 katom-step/s
99.6% CPU use with 1 MPI tasks x 1 OpenMP threads

MPI task timing breakdown:
Section |  min time  |  avg time  |  max time  |%varavg| %total
---------------------------------------------------------------
Pair    | 384.5      | 384.5      | 384.5      |   0.0 | 99.84
Neigh   | 0.092271   | 0.092271   | 0.092271   |   0.0 |  0.02
Comm    | 0.30148    | 0.30148    | 0.30148    |   0.0 |  0.08
Output  | 0.024171   | 0.024171   | 0.024171   |   0.0 |  0.01
Modify  | 0.17755    | 0.17755    | 0.17755    |   0.0 |  0.05
Other   |            | 0.03332    |            |       |  0.01

Nlocal:           1089 ave        1089 max        1089 min
Histogram: 1 0 0 0 0 0 0 0 0 0
Nghost:           1863 ave        1863 max        1863 min
Histogram: 1 0 0 0 0 0 0 0 0 0
Neighs:              0 ave           0 max           0 min
Histogram: 1 0 0 0 0 0 0 0 0 0
FullNghs:        77702 ave       77702 max       77702 min
Histogram: 1 0 0 0 0 0 0 0 0 0

Total # of neighbors = 77702
Ave neighs/atom = 71.351699
Neighbor list builds = 400
Dangerous builds not checked

unfix           1coolB
unfix           2coolB

delete_atoms    region del
Deleted 0 atoms, new total = 1089

next		a
jump		in_cpu.lammps loop

variable    	c equal ${c}+1
variable    	c equal 55+1
variable    	deposeed equal floor(random(1,3245,${c}))
variable    	deposeed equal floor(random(1,3245,56))

fix		depo insert deposit 1 2 1000 ${deposeed} region insert vx 0.0 0.0 vy ${vely} ${vely} vz -${velz} -${velz} units box
fix		depo insert deposit 1 2 1000 1888 region insert vx 0.0 0.0 vy ${vely} ${vely} vz -${velz} -${velz} units box
fix		depo insert deposit 1 2 1000 1888 region insert vx 0.0 0.0 vy 0 ${vely} vz -${velz} -${velz} units box
fix		depo insert deposit 1 2 1000 1888 region insert vx 0.0 0.0 vy 0 0 vz -${velz} -${velz} units box
fix		depo insert deposit 1 2 1000 1888 region insert vx 0.0 0.0 vy 0 0 vz -219.776405126004 -${velz} units box
fix		depo insert deposit 1 2 1000 1888 region insert vx 0.0 0.0 vy 0 0 vz -219.776405126004 -219.776405126004 units box

fix     	2 mobile nve
fix             3 insert nve

run		2000
Per MPI rank memory allocation (min/avg/max) = 166.4 | 166.4 | 166.4 Mbytes
   Step        Atoms      v_nmobile      v_ninject         Temp          TotEng    
    220000        1089   955            38             308.49917     -5290.2267    
    220100        1090   955            39             298.84176     -5290.3611    
    220200        1090   955            39             308.62401     -5290.0473    
    220300        1090   955            39             320.96611     -5288.3629    
    220400        1090   955            39             351.87196     -5283.6127    
    220500        1090   955            39             858.47065     -5196.6212    
    220600        1090   955            39             783.41601     -5196.7221    
    220700        1089   954            39             544.07064     -5220.7379    
    220800        1089   954            39             492.35812     -5221.2561    
    220900        1089   954            39             459.34587     -5220.8244    
    221000        1089   954            39             465.18499     -5221.654     
    221100        1088   954            38             478.30905     -5221.5623    
    221200        1088   954            38             494.13996     -5221.6522    
    221300        1088   954            38             495.35983     -5221.4541    
    221400        1088   954            38             514.34853     -5221.3828    
    221500        1088   954            38             513.87395     -5221.1502    
    221600        1088   954            38             512.98722     -5221.3153    
    221700        1088   954            38             518.4492      -5221.2529    
    221800        1088   954            38             523.87993     -5221.0028    
    221900        1088   954            38             509.56829     -5220.7315    
    222000        1088   954            38             530.02026     -5220.6746    
Loop time of 382.768 on 1 procs for 2000 steps with 1088 atoms

Performance: 0.226 ns/day, 106.325 hours/ns, 5.225 timesteps/s, 5.685 katom-step/s
99.6% CPU use with 1 MPI tasks x 1 OpenMP threads

MPI task timing breakdown:
Section |  min time  |  avg time  |  max time  |%varavg| %total
---------------------------------------------------------------
Pair    | 381.86     | 381.86     | 381.86     |   0.0 | 99.76
Neigh   | 0.091648   | 0.091648   | 0.091648   |   0.0 |  0.02
Comm    | 0.34273    | 0.34273    | 0.34273    |   0.0 |  0.09
Output  | 0.056229   | 0.056229   | 0.056229   |   0.0 |  0.01
Modify  | 0.24995    | 0.24995    | 0.24995    |   0.0 |  0.07
Other   |            | 0.1628     |            |       |  0.04

Nlocal:           1088 ave        1088 max        1088 min
Histogram: 1 0 0 0 0 0 0 0 0 0
Nghost:           1869 ave        1869 max        1869 min
Histogram: 1 0 0 0 0 0 0 0 0 0
Neighs:              0 ave           0 max           0 min
Histogram: 1 0 0 0 0 0 0 0 0 0
FullNghs:        76566 ave       76566 max       76566 min
Histogram: 1 0 0 0 0 0 0 0 0 0

Total # of neighbors = 76566
Ave neighs/atom = 70.373162
Neighbor list builds = 400
Dangerous builds not checked

unfix      	depo

fix        	1coolB mobile temp/berendsen 298.0 298.0 0.1
fix        	2coolB insert temp/berendsen 298.0 298.0 0.1

run		2000
Per MPI rank memory allocation (min/avg/max) = 166.6 | 166.6 | 166.6 Mbytes
   Step        Atoms      v_nmobile      v_ninject         Temp          TotEng    
    222000        1088   954            38             530.02026     -5220.6746    
    222100        1088   954            38             463.18893     -5232.6013    
    222200        1088   954            38             436.73592     -5241.5171    
    222300        1088   954            38             411.46108     -5249.3986    
    222400        1088   954            38             410.55194     -5256.6656    
    222500        1088   954            38             369.1685      -5262.6991    
    222600        1088   954            38             358.79058     -5267.2246    
    222700        1088   954            38             343.00618     -5270.5365    
    222800        1088   954            38             332.93899     -5273.5061    
    222900        1088   954            38             325.11787     -5275.7209    
    223000        1088   954            38             326.58169     -5277.6229    
    223100        1088   954            38             320.18443     -5279.798     
    223200        1088   954            38             311.41427     -5281.162     
    223300        1088   954            38             319.65598     -5282.1664    
    223400        1088   954            38             326.49835     -5284.0677    
    223500        1088   954            38             310.08912     -5285.0045    
    223600        1088   954            38             299.9808      -5285.7038    
    223700        1088   954            38             304.15875     -5286.3171    
    223800        1088   954            38             303.67567     -5286.8775    
    223900        1088   954            38             309.66984     -5287.6728    
    224000        1088   954            38             310.73647     -5289.0005    
Loop time of 381.202 on 1 procs for 2000 steps with 1088 atoms

Performance: 0.227 ns/day, 105.889 hours/ns, 5.247 timesteps/s, 5.708 katom-step/s
99.6% CPU use with 1 MPI tasks x 1 OpenMP threads

MPI task timing breakdown:
Section |  min time  |  avg time  |  max time  |%varavg| %total
---------------------------------------------------------------
Pair    | 380.57     | 380.57     | 380.57     |   0.0 | 99.83
Neigh   | 0.091457   | 0.091457   | 0.091457   |   0.0 |  0.02
Comm    | 0.29921    | 0.29921    | 0.29921    |   0.0 |  0.08
Output  | 0.034626   | 0.034626   | 0.034626   |   0.0 |  0.01
Modify  | 0.17515    | 0.17515    | 0.17515    |   0.0 |  0.05
Other   |            | 0.03274    |            |       |  0.01

Nlocal:           1088 ave        1088 max        1088 min
Histogram: 1 0 0 0 0 0 0 0 0 0
Nghost:           1866 ave        1866 max        1866 min
Histogram: 1 0 0 0 0 0 0 0 0 0
Neighs:              0 ave           0 max           0 min
Histogram: 1 0 0 0 0 0 0 0 0 0
FullNghs:        76700 ave       76700 max       76700 min
Histogram: 1 0 0 0 0 0 0 0 0 0

Total # of neighbors = 76700
Ave neighs/atom = 70.496324
Neighbor list builds = 400
Dangerous builds not checked

unfix           1coolB
unfix           2coolB

delete_atoms    region del
Deleted 0 atoms, new total = 1088

next		a
jump		in_cpu.lammps loop

variable    	c equal ${c}+1
variable    	c equal 56+1
variable    	deposeed equal floor(random(1,3245,${c}))
variable    	deposeed equal floor(random(1,3245,57))

fix		depo insert deposit 1 2 1000 ${deposeed} region insert vx 0.0 0.0 vy ${vely} ${vely} vz -${velz} -${velz} units box
fix		depo insert deposit 1 2 1000 1387 region insert vx 0.0 0.0 vy ${vely} ${vely} vz -${velz} -${velz} units box
fix		depo insert deposit 1 2 1000 1387 region insert vx 0.0 0.0 vy 0 ${vely} vz -${velz} -${velz} units box
fix		depo insert deposit 1 2 1000 1387 region insert vx 0.0 0.0 vy 0 0 vz -${velz} -${velz} units box
fix		depo insert deposit 1 2 1000 1387 region insert vx 0.0 0.0 vy 0 0 vz -219.776405126004 -${velz} units box
fix		depo insert deposit 1 2 1000 1387 region insert vx 0.0 0.0 vy 0 0 vz -219.776405126004 -219.776405126004 units box

fix     	2 mobile nve
fix             3 insert nve

run		2000
Per MPI rank memory allocation (min/avg/max) = 166.4 | 166.4 | 166.4 Mbytes
   Step        Atoms      v_nmobile      v_ninject         Temp          TotEng    
    224000        1088   954            38             310.73647     -5289.0005    
    224100        1089   954            39             306.37937     -5289.2522    
    224200        1089   954            39             538.4242      -5249.9648    
    224300        1089   954            39             815.81216     -5199.2466    
    224400        1089   954            39             755.72853     -5198.7726    
    224500        1089   954            39             631.18484     -5197.6549    
    224600        1089   954            39             609.76724     -5193.871     
    224700        1089   954            39             591.15623     -5192.2436    
    224800        1089   954            39             618.63676     -5190.7492    
    224900        1089   954            39             596.28098     -5190.6622    
    225000        1089   954            39             615.11984     -5190.4658    
    225100        1089   954            39             606.67062     -5190.2643    
    225200        1089   954            39             603.06524     -5190.1467    
    225300        1089   954            39             597.96442     -5190.2367    
    225400        1089   954            39             620.80404     -5190.2603    
    225500        1089   954            39             620.56884     -5190.3914    
    225600        1089   954            39             615.11042     -5190.2399    
    225700        1089   954            39             626.61958     -5190.4029    
    225800        1089   954            39             644.85464     -5190.6061    
    225900        1089   954            39             618.28218     -5190.4508    
    226000        1089   954            39             603.99681     -5190.365     
Loop time of 383.362 on 1 procs for 2000 steps with 1089 atoms

Performance: 0.225 ns/day, 106.490 hours/ns, 5.217 timesteps/s, 5.681 katom-step/s
99.6% CPU use with 1 MPI tasks x 1 OpenMP threads

MPI task timing breakdown:
Section |  min time  |  avg time  |  max time  |%varavg| %total
---------------------------------------------------------------
Pair    | 382.5      | 382.5      | 382.5      |   0.0 | 99.78
Neigh   | 0.09187    | 0.09187    | 0.09187    |   0.0 |  0.02
Comm    | 0.34193    | 0.34193    | 0.34193    |   0.0 |  0.09
Output  | 0.01468    | 0.01468    | 0.01468    |   0.0 |  0.00
Modify  | 0.24943    | 0.24943    | 0.24943    |   0.0 |  0.07
Other   |            | 0.1623     |            |       |  0.04

Nlocal:           1089 ave        1089 max        1089 min
Histogram: 1 0 0 0 0 0 0 0 0 0
Nghost:           1870 ave        1870 max        1870 min
Histogram: 1 0 0 0 0 0 0 0 0 0
Neighs:              0 ave           0 max           0 min
Histogram: 1 0 0 0 0 0 0 0 0 0
FullNghs:        77896 ave       77896 max       77896 min
Histogram: 1 0 0 0 0 0 0 0 0 0

Total # of neighbors = 77896
Ave neighs/atom = 71.529844
Neighbor list builds = 400
Dangerous builds not checked

unfix      	depo

fix        	1coolB mobile temp/berendsen 298.0 298.0 0.1
fix        	2coolB insert temp/berendsen 298.0 298.0 0.1

run		2000
Per MPI rank memory allocation (min/avg/max) = 166.4 | 166.4 | 166.4 Mbytes
   Step        Atoms      v_nmobile      v_ninject         Temp          TotEng    
    226000        1089   954            39             603.99681     -5190.365     
    226100        1089   954            39             508.24515     -5206.5352    
    226200        1089   954            39             483.7835      -5218.8371    
    226300        1089   954            39             432.37781     -5229.1029    
    226400        1089   954            39             408.69075     -5237.326     
    226500        1089   954            39             390.43985     -5243.8627    
    226600        1089   954            39             374.48525     -5250.0405    
    226700        1089   954            39             373.548       -5254.2039    
    226800        1089   954            39             359.08522     -5258.3947    
    226900        1089   954            39             346.09258     -5262.1789    
    227000        1089   954            39             340.2675      -5264.6724    
    227100        1089   954            39             329.10738     -5266.9478    
    227200        1089   954            39             322.50538     -5268.3541    
    227300        1089   954            39             325.23491     -5270.3647    
    227400        1089   954            39             322.7589      -5272.0458    
    227500        1089   954            39             328.31727     -5273.6923    
    227600        1089   954            39             322.96841     -5275.5244    
    227700        1089   954            39             309.3652      -5276.468     
    227800        1089   954            39             311.30808     -5277.2758    
    227900        1089   954            39             317.77997     -5278.5626    
    228000        1089   954            39             309.67496     -5279.6538    
Loop time of 384.987 on 1 procs for 2000 steps with 1089 atoms

Performance: 0.224 ns/day, 106.941 hours/ns, 5.195 timesteps/s, 5.657 katom-step/s
99.6% CPU use with 1 MPI tasks x 1 OpenMP threads

MPI task timing breakdown:
Section |  min time  |  avg time  |  max time  |%varavg| %total
---------------------------------------------------------------
Pair    | 384.22     | 384.22     | 384.22     |   0.0 | 99.80
Neigh   | 0.092252   | 0.092252   | 0.092252   |   0.0 |  0.02
Comm    | 0.30188    | 0.30188    | 0.30188    |   0.0 |  0.08
Output  | 0.1618     | 0.1618     | 0.1618     |   0.0 |  0.04
Modify  | 0.17726    | 0.17726    | 0.17726    |   0.0 |  0.05
Other   |            | 0.0334     |            |       |  0.01

Nlocal:           1089 ave        1089 max        1089 min
Histogram: 1 0 0 0 0 0 0 0 0 0
Nghost:           1888 ave        1888 max        1888 min
Histogram: 1 0 0 0 0 0 0 0 0 0
Neighs:              0 ave           0 max           0 min
Histogram: 1 0 0 0 0 0 0 0 0 0
FullNghs:        77554 ave       77554 max       77554 min
Histogram: 1 0 0 0 0 0 0 0 0 0

Total # of neighbors = 77554
Ave neighs/atom = 71.215794
Neighbor list builds = 400
Dangerous builds not checked
