Si Cl Si Cl Si Cl Si Cl Si Cl Si Cl Si Cl Si Cl Si Cl Si Cl Si Cl Si Cl Si Cl
 1.0000000000000000
    21.7199999999999989    0.0000000000000000    0.0000000000000000
     0.0000000000000000   21.7199999999999989    0.0000000000000000
     0.0000000000000000    0.0000000000000000   55.4399999999999977
 Si  Cl  Si  Cl  Si  Cl  Si  Cl  Si  Cl  Si  Cl  Si  Cl  Si  Cl  Si  Cl  Si  Cl  Si  Cl  Si  Cl  Si  Cl 
 1023   1   3   2   4   1   2   1   4   1   2   1   2   1   1   1   1   1   7   1   1   1   2   3   4   9
Cartesian
  0.0000000000000000  0.0000000000000000  0.0000000000000000
  0.0000000000000000  2.7149999999999999  2.7149999999999999
  2.7149999999999999  0.0000000000000000  2.7149999999999999
  2.7149999999999999  2.7149999999999999  0.0000000000000000
  1.3574999999999999  1.3574999999999999  1.3574999999999999
  5.4299999999999997  0.0000000000000000  0.0000000000000000
  5.4299999999999997  2.7149999999999999  2.7149999999999999
  8.1449999999999996  0.0000000000000000  2.7149999999999999
  8.1449999999999996  2.7149999999999999  0.0000000000000000
  6.7874999999999996  1.3574999999999999  1.3574999999999999
 10.8599999999999994  0.0000000000000000  0.0000000000000000
 10.8599999999999994  2.7149999999999999  2.7149999999999999
 12.2174999999999994  1.3574999999999999  1.3574999999999999
 13.5749999999999993  0.0000000000000000  2.7149999999999999
 13.5749999999999993  2.7149999999999999  0.0000000000000000
 16.2899999999999991  0.0000000000000000  0.0000000000000000
 16.2899999999999991  2.7149999999999999  2.7149999999999999
 17.6475000000000009  1.3574999999999999  1.3574999999999999
 19.0049999999999990  0.0000000000000000  2.7149999999999999
 19.0049999999999990  2.7149999999999999  0.0000000000000000
  0.0000000000000000  5.4299999999999997  0.0000000000000000
  2.7149999999999999  5.4299999999999997  2.7149999999999999
  4.0724999999999998  4.0724999999999998  1.3574999999999999
  5.4299999999999997  5.4299999999999997  0.0000000000000000
  8.1449999999999996  5.4299999999999997  2.7149999999999999
  9.5024999999999995  4.0724999999999998  1.3574999999999999
 10.8599999999999994  5.4299999999999997  0.0000000000000000
 14.9324999999999992  4.0724999999999998  1.3574999999999999
 13.5749999999999993  5.4299999999999997  2.7149999999999999
 16.2899999999999991  5.4299999999999997  0.0000000000000000
 20.3625000000000007  4.0724999999999998  1.3574999999999999
 19.0049999999999990  5.4299999999999997  2.7149999999999999
  0.0000000000000000  8.1449999999999996  2.7149999999999999
  2.7149999999999999  8.1449999999999996  0.0000000000000000
  1.3574999999999999  6.7874999999999996  1.3574999999999999
  5.4299999999999997  8.1449999999999996  2.7149999999999999
  8.1449999999999996  8.1449999999999996  0.0000000000000000
  6.7874999999999996  6.7874999999999996  1.3574999999999999
 10.8599999999999994  8.1449999999999996  2.7149999999999999
 12.2174999999999994  6.7874999999999996  1.3574999999999999
 13.5749999999999993  8.1449999999999996  0.0000000000000000
 16.2899999999999991  8.1449999999999996  2.7149999999999999
 17.6475000000000009  6.7874999999999996  1.3574999999999999
 19.0049999999999990  8.1449999999999996  0.0000000000000000
  0.0000000000000000 10.8599999999999994  0.0000000000000000
  2.7149999999999999 10.8599999999999994  2.7149999999999999
  1.3574999999999999 12.2174999999999994  1.3574999999999999
  4.0724999999999998  9.5024999999999995  1.3574999999999999
  5.4299999999999997 10.8599999999999994  0.0000000000000000
  8.1449999999999996 10.8599999999999994  2.7149999999999999
  6.7874999999999996 12.2174999999999994  1.3574999999999999
  9.5024999999999995  9.5024999999999995  1.3574999999999999
 10.8599999999999994 10.8599999999999994  0.0000000000000000
 12.2174999999999994 12.2174999999999994  1.3574999999999999
 14.9324999999999992  9.5024999999999995  1.3574999999999999
 13.5749999999999993 10.8599999999999994  2.7149999999999999
 16.2899999999999991 10.8599999999999994  0.0000000000000000
 17.6475000000000009 12.2174999999999994  1.3574999999999999
 20.3625000000000007  9.5024999999999995  1.3574999999999999
 19.0049999999999990 10.8599999999999994  2.7149999999999999
  0.0000000000000000 13.5749999999999993  2.7149999999999999
  2.7149999999999999 13.5749999999999993  0.0000000000000000
  4.0724999999999998 14.9324999999999992  1.3574999999999999
  5.4299999999999997 13.5749999999999993  2.7149999999999999
  8.1449999999999996 13.5749999999999993  0.0000000000000000
  9.5024999999999995 14.9324999999999992  1.3574999999999999
 10.8599999999999994 13.5749999999999993  2.7149999999999999
 13.5749999999999993 13.5749999999999993  0.0000000000000000
 14.9324999999999992 14.9324999999999992  1.3574999999999999
 16.2899999999999991 13.5749999999999993  2.7149999999999999
 19.0049999999999990 13.5749999999999993  0.0000000000000000
 20.3625000000000007 14.9324999999999992  1.3574999999999999
  0.0000000000000000 16.2899999999999991  0.0000000000000000
  2.7149999999999999 16.2899999999999991  2.7149999999999999
  1.3574999999999999 17.6475000000000009  1.3574999999999999
  5.4299999999999997 16.2899999999999991  0.0000000000000000
  8.1449999999999996 16.2899999999999991  2.7149999999999999
  6.7874999999999996 17.6475000000000009  1.3574999999999999
 10.8599999999999994 16.2899999999999991  0.0000000000000000
 12.2174999999999994 17.6475000000000009  1.3574999999999999
 13.5749999999999993 16.2899999999999991  2.7149999999999999
 16.2899999999999991 16.2899999999999991  0.0000000000000000
 17.6475000000000009 17.6475000000000009  1.3574999999999999
 19.0049999999999990 16.2899999999999991  2.7149999999999999
  0.0000000000000000 19.0049999999999990  2.7149999999999999
  2.7149999999999999 19.0049999999999990  0.0000000000000000
  4.0724999999999998 20.3625000000000007  1.3574999999999999
  5.4299999999999997 19.0049999999999990  2.7149999999999999
  8.1449999999999996 19.0049999999999990  0.0000000000000000
  9.5024999999999995 20.3625000000000007  1.3574999999999999
 10.8599999999999994 19.0049999999999990  2.7149999999999999
 13.5749999999999993 19.0049999999999990  0.0000000000000000
 14.9324999999999992 20.3625000000000007  1.3574999999999999
 16.2899999999999991 19.0049999999999990  2.7149999999999999
 19.0049999999999990 19.0049999999999990  0.0000000000000000
 20.3625000000000007 20.3625000000000007  1.3574999999999999
  2.6074799999999998  2.8592300000000002  5.4469799999999999
  4.0398899999999998  1.3692899999999999  4.2716000000000003
  5.3541699999999999 21.7119999999999997  5.5240299999999998
  8.1485500000000002  2.6890900000000002  5.5899200000000002
  9.5491600000000005  1.3964000000000001  4.0555500000000002
 14.8786000000000005  1.4148400000000001  4.0708399999999996
 13.4488000000000003  2.6890900000000002  5.5162800000000001
 16.2856999999999985 21.6535000000000011  5.4990899999999998
 20.2095999999999982  1.5196600000000000  4.0843100000000003
 18.9409999999999989  2.7701199999999999  5.4726499999999998
  1.3419099999999999  4.2084599999999996  4.1127099999999999
  5.3567499999999999  5.3908800000000001  5.6105000000000000
  6.7698299999999998  4.0511499999999998  4.2028800000000004
 12.2340000000000000  4.0141000000000000  4.0857099999999997
 10.7502999999999993  5.4127700000000001  5.5073200000000000
 17.5188999999999986  4.0778299999999996  4.1603199999999996
 16.2811999999999983  5.4331699999999996  5.5461099999999997
 21.7079999999999984  5.4695900000000002  5.5245300000000004
  2.7540100000000001  8.2784899999999997  5.5708700000000002
  4.0636900000000002  6.6738299999999997  4.2087599999999998
  8.1197199999999992  8.2751900000000003  5.5358299999999998
  9.4198400000000007  6.8460900000000002  4.0954699999999997
 15.0211000000000006  6.5958100000000002  4.0715199999999996
 13.5160000000000000  8.0011399999999995  5.3957600000000001
 20.2775999999999996  6.8107499999999996  4.1184200000000004
 19.0285000000000011  8.2114399999999996  5.4586499999999996
  1.2737700000000001  9.5547400000000007  4.1207200000000004
  4.0665600000000000 12.2459000000000007  4.0745199999999997
  5.3766499999999997 11.0403000000000002  5.6147700000000000
  6.6878000000000002  9.5307399999999998  4.1969000000000003
 10.8300000000000001 10.9200999999999997  5.5068299999999999
  9.5211299999999994 12.2363000000000000  4.1434699999999998
 12.1504999999999992  9.4406099999999995  4.0900100000000004
 14.9107000000000003 12.1890999999999998  4.1285400000000001
 17.5155999999999992  9.5865500000000008  4.1586800000000004
 16.1757999999999988 10.9136000000000006  5.6692600000000004
 20.2578999999999994 12.2583000000000002  4.1494499999999999
  0.0990210000000000 10.9905000000000008  5.6299000000000001
  1.4556899999999999 14.8890999999999991  4.1095199999999998
  2.8733700000000000 13.6605000000000008  5.5126600000000003
  6.6736500000000003 15.0231999999999992  4.0497199999999998
  8.0681399999999996 13.6091999999999995  5.4912299999999998
 12.3137000000000008 14.8966999999999992  4.1973200000000004
 13.7382000000000009 13.6016999999999992  5.4969900000000003
 17.5975999999999999 14.8908000000000005  4.1235999999999997
 18.9357000000000006 13.5413999999999994  5.5467500000000003
 21.6827000000000005 16.2227999999999994  5.5038600000000004
  3.9879600000000002 17.7843000000000018  4.0859300000000003
  5.4304800000000002 16.4522000000000013  5.5122900000000001
  9.3920200000000005 17.7222000000000008  4.1956199999999999
 10.9014000000000006 16.2777999999999992  5.5910200000000003
 14.9092000000000002 17.6985999999999990  4.1452099999999996
 16.1980000000000004 16.2229999999999990  5.6560699999999997
 20.3425000000000011 17.7055000000000007  4.1269099999999996
 21.6524000000000001  0.2026420000000000  5.4537000000000004
  1.2966599999999999 20.4500999999999991  4.1230700000000002
  2.6357599999999999 19.0926000000000009  5.3704400000000003
  6.7053000000000003 20.4613000000000014  4.0953799999999996
  8.0179600000000004 19.1591999999999985  5.5467000000000004
 12.2780000000000005 20.3183000000000007  4.0861599999999996
 10.8295999999999992  0.0433023000000000  5.5172200000000000
 13.4308999999999994 18.8814999999999991  5.5575999999999999
 17.5482000000000014 20.4637999999999991  3.9940500000000001
 18.9666999999999994 19.1125000000000007  5.5645899999999999
  1.2751500000000000  1.4708600000000001  6.8530899999999999
  2.6207600000000002 21.6932000000000009  8.2173099999999994
  5.2542799999999996  2.5419499999999999  8.2266399999999997
  6.7379300000000004  1.2296700000000000  6.8508300000000002
  8.0314300000000003 21.6803999999999988  8.4036799999999996
 10.9458000000000002  2.6493000000000002  8.3193999999999999
 12.1722999999999999  1.2262900000000001  6.9706500000000000
 13.4230999999999998 21.5914000000000001  8.3325200000000006
 16.2025000000000006  2.6816000000000000  8.2566199999999998
 17.5146000000000015  1.2408100000000000  6.8787200000000004
  0.0155366000000000  2.8611000000000000  8.3313500000000005
 18.9243999999999986  0.0398066000000000  8.2771200000000000
  2.7608999999999999  5.5368000000000004  8.3907200000000000
  3.9141599999999999  4.1207700000000003  7.0262599999999997
  8.0786400000000000  5.3840199999999996  8.3989899999999995
  9.3003000000000000  4.0232599999999996  7.0311399999999997
 14.8452000000000002  4.0710499999999996  6.9561999999999999
 13.4742999999999995  5.4251600000000000  8.3177800000000008
 20.2946999999999989  4.1465100000000001  6.9427800000000000
 18.9185000000000016  5.4099000000000004  8.4228600000000000
  1.3054500000000000  6.8694400000000000  6.9716300000000002
 21.6433999999999997  8.1353399999999993  8.4980200000000004
  5.3877199999999998  8.2585999999999995  8.3552400000000002
  6.6376900000000001  6.8646900000000004  6.9415800000000001
 10.6949000000000005  8.0164399999999993  8.3178000000000001
 12.1577999999999999  6.6992799999999999  6.9173799999999996
 16.2641999999999989  8.0137900000000002  8.2539800000000003
 17.6709999999999994  6.7896799999999997  6.8668600000000000
  2.8449100000000000 10.9939999999999998  8.3919400000000000
  1.4893099999999999 12.3656000000000006  6.9375299999999998
  4.0059899999999997  9.6811699999999998  6.9383299999999997
  8.0878399999999999 10.8635999999999999  8.3957999999999995
  6.7490699999999997 12.2728000000000002  7.0057400000000003
  9.4512400000000003  9.6360100000000006  6.8658799999999998
 12.2006999999999994 12.2913999999999994  6.8221100000000003
 14.8961000000000006  9.3004200000000008  6.9059799999999996
 13.4426000000000005 10.6367999999999991  8.3215400000000006
 17.7698000000000000 12.2157999999999998  7.1208000000000000
 20.4055999999999997  9.5033999999999992  6.8763800000000002
 19.1892999999999994 10.8620999999999999  8.2596600000000002
  0.0427460000000000 13.6219000000000001  8.3366600000000002
  4.0583299999999998 15.1814999999999998  6.8863599999999998
  5.4274300000000002 13.6209000000000007  8.4244199999999996
  9.5732099999999996 14.8727000000000000  6.9235899999999999
 10.9608000000000008 13.5546000000000006  8.3916500000000003
 15.1044999999999998 14.8388000000000009  7.0834900000000003
 16.3160999999999987 13.4852000000000007  8.4193499999999997
 20.3959000000000010 14.8975000000000009  6.9234299999999998
  2.7351800000000002 16.3408000000000015  8.4114400000000007
  1.3094200000000000 17.6136000000000017  6.8540299999999998
  8.2285199999999996 16.4756999999999998  8.3044600000000006
  6.7675700000000001 17.8634999999999984  6.9607900000000003
 12.1525999999999996 17.5203999999999986  7.0881800000000004
 13.7420000000000009 16.2514000000000003  8.4274699999999996
 17.6835999999999984 17.6798000000000002  7.0027100000000004
 19.1477000000000004 16.3434999999999988  8.4155400000000000
  0.0586317000000000 19.0463999999999984  8.3321299999999994
  3.9761799999999998 20.2867999999999995  6.9206899999999996
  5.5363800000000003 19.1069999999999993  8.5616099999999999
  9.4608100000000004 20.3565000000000005  6.9414400000000001
 10.9083000000000006 19.0778999999999996  8.4059100000000004
 14.9254999999999995 20.2794999999999987  6.9252700000000003
 16.3164000000000016 19.0039000000000016  8.4832400000000003
 20.4649000000000001 20.3822000000000010  6.8507499999999997
  2.5799900000000000  2.7095699999999998 11.1760999999999999
  1.3508000000000000  1.2402100000000000 12.6228999999999996
 -0.0004076730000000 21.6026999999999987 11.1182999999999996
  5.3079299999999998  0.0504765000000000 11.1672999999999991
  3.8702600000000000  1.3195100000000000  9.7059400000000000
  7.8822799999999997  2.6078100000000002 11.0399999999999991
  9.3712300000000006  1.3034600000000001  9.7618200000000002
 10.9259000000000004  0.0738587000000000 11.0626999999999995
 14.8580000000000005  1.3803099999999999  9.6305300000000003
 13.5551999999999992  2.5316299999999998 11.2164999999999999
 17.6565000000000012  1.3220700000000001 12.4707000000000008
 20.3665999999999983  1.3455600000000001  9.6283600000000007
 19.0101000000000013  2.6467000000000001 10.9585000000000008
  1.3682399999999999  4.1075799999999996  9.7545199999999994
 21.6877999999999993  5.3417800000000000 11.2525999999999993
  5.3175800000000004  5.3562000000000003 11.0464000000000002
  6.6492899999999997  3.9864899999999999  9.6612700000000000
 12.1864000000000008  4.0332600000000003  9.8174100000000006
 10.6905999999999999  5.4084800000000000 11.1782000000000004
 14.7044999999999995  3.9685199999999998 12.5874000000000006
 17.4903000000000013  4.0097300000000002  9.7219200000000008
 16.1374999999999993  5.3195300000000003 11.1494000000000000
 20.3354999999999997  3.8928099999999999 12.5012000000000008
  2.6280199999999998  8.1424800000000008 11.0273000000000003
  4.0284399999999998  6.8225100000000003  9.7681000000000004
  8.0905500000000004  8.0259300000000007 11.0180000000000007
  9.4825599999999994  6.7326800000000002  9.7245600000000003
 12.1029000000000000  6.7209500000000002 12.4859000000000009
 13.3900000000000006  8.0617999999999999 11.1121999999999996
 14.7269000000000005  6.8220499999999999  9.7394499999999997
 17.5796999999999990  6.6118399999999999 12.5238999999999994
 20.3083999999999989  6.7258699999999996  9.8204399999999996
 18.8960000000000008  8.0422100000000007 11.1029000000000000
  0.1133070000000000 10.9479000000000006 11.2359000000000009
  1.3421200000000000  9.5612200000000005  9.6524699999999992
  1.3897500000000000 12.1590000000000007 12.6938999999999993
  5.4277600000000001 10.9237000000000002 11.1713000000000005
  4.1550799999999999 12.3597999999999999  9.8985299999999992
  6.7746399999999998  9.5982699999999994  9.8366000000000007
 12.0238999999999994  9.4366699999999994  9.6580800000000000
 10.8558000000000003 10.8108000000000004 11.1766000000000005
  9.5057500000000008 12.3169000000000004  9.7039899999999992
 12.4092000000000002 12.2292000000000005 12.4322999999999997
 14.9228000000000005 12.1175999999999995  9.6018600000000003
 14.9161999999999999  9.3689400000000003 12.3712000000000000
 17.6329999999999991  9.3726099999999999  9.7140900000000006
 16.3141999999999996 10.7052999999999994 11.0036000000000005
 20.4658000000000015 12.0911000000000008  9.8037600000000005
  1.3906000000000001 14.9290000000000003  9.8422300000000007
  2.7755299999999998 13.6272000000000002 11.3620000000000001
  4.0673100000000000 14.9025999999999996 12.7119999999999997
  7.0027999999999997 15.0974000000000004  9.7564100000000007
  8.2563800000000001 13.6674000000000007 11.1618999999999993
 12.3125999999999998 15.0315999999999992  9.8026300000000006
 13.7428000000000008 13.6504999999999992 11.0373999999999999
 14.9161000000000001 14.8779000000000003 12.7636000000000003
 17.6117999999999988 14.8901000000000003  9.7502099999999992
 19.0376000000000012 13.3350000000000009 10.9801000000000002
  1.4280900000000001 17.4302999999999990 12.5794999999999995
  4.0121200000000004 17.6450999999999993  9.7882300000000004
  5.3600599999999998 16.1651999999999987 11.0953999999999997
  6.8001399999999999 17.6337000000000010 12.5149000000000008
  9.6032100000000007 17.7127000000000017  9.8414599999999997
 11.0623000000000005 16.3318000000000012 11.2544000000000004
 12.3452000000000002 17.8264999999999993 12.5238999999999994
 15.0229999999999997 17.4726999999999997  9.7551199999999998
 16.3601999999999990 16.2086000000000006 11.3019999999999996
 17.7535999999999987 17.5280999999999985 12.7175999999999991
 21.6596000000000011 16.1056999999999988 11.1315000000000008
 20.4941999999999993 17.6323000000000008  9.8389299999999995
  1.4271499999999999 20.3155000000000001  9.6974900000000002
  2.7054900000000002 18.9673000000000016 11.1654000000000000
  4.0597899999999996 20.3973000000000013 12.5534999999999997
  6.9084000000000003 20.4175000000000004  9.8811999999999998
  8.1828199999999995 18.9953000000000003 11.1875000000000000
 12.2866000000000000 20.3708999999999989  9.8148800000000005
  9.5812200000000001 20.4599000000000011 12.4959000000000007
 13.7981999999999996 18.9797000000000011 11.0416000000000007
 16.3333000000000013 21.6381000000000014 10.9486000000000008
 17.7545999999999999 20.2802000000000007  9.7314000000000007
 19.1346999999999987 18.9646000000000008 11.2908000000000008
 20.6457000000000015 20.3229000000000006 12.6311000000000000
  2.6383299999999998 21.6690000000000005 14.1343999999999994
 21.6804999999999986  2.6519699999999999 13.9403000000000006
  5.2859699999999998  2.8563900000000002 14.0601000000000003
  4.0734700000000004  1.2682500000000001 15.3930000000000007
  6.6986100000000004  1.5062899999999999 12.5419999999999998
  8.1221099999999993 21.7123999999999988 13.8820999999999994
 12.1626999999999992  1.3908400000000001 12.5105000000000004
 10.6952999999999996  2.6255999999999999 13.8835999999999995
  9.4309300000000000  1.3163100000000001 15.4153000000000002
 14.8473000000000006  1.3986000000000001 15.2459000000000007
 13.5752000000000006  0.0148316000000000 13.8440999999999992
 16.3538999999999994  2.6715499999999999 13.9136000000000006
 20.4131000000000000  1.3410800000000000 15.3785000000000007
  2.7387999999999999  5.3989099999999999 13.9114000000000004
  1.4611900000000000  3.9072200000000001 15.3142999999999994
  3.9895800000000001  4.0850200000000001 12.4809999999999999
  7.9608200000000000  5.3320499999999997 13.6943999999999999
  6.8005800000000001  4.1164300000000003 15.3285000000000000
  9.2826199999999996  3.8981300000000001 12.5076999999999998
 11.9976000000000003  4.1064200000000000 15.2368000000000006
 13.4450000000000003  5.4486299999999996 13.8748000000000005
 17.7245999999999988  4.0826900000000004 15.3140999999999998
 19.0523999999999987  5.2874400000000001 13.8106000000000009
  1.3037900000000000  6.7840299999999996 12.5112000000000005
  5.2948700000000004  8.0934399999999993 13.8596000000000004
  4.1231799999999996  6.6982900000000001 15.3437000000000001
  6.6827699999999997  6.7063600000000001 12.4408999999999992
  9.4392300000000002  6.6443399999999997 15.0105000000000004
 10.8431999999999995  8.1793399999999998 13.6915999999999993
 14.7207000000000008  6.6176199999999996 15.3611000000000004
 16.1718000000000011  7.9459299999999997 13.9920000000000009
 21.6388999999999996  8.1172500000000003 14.0822000000000003
 20.3898000000000010  6.5110299999999999 15.2643000000000004
  2.6715900000000001 10.7713999999999999 14.0373999999999999
  1.4207700000000001  9.4145699999999994 15.4111999999999991
  4.0347900000000001  9.5268499999999996 12.5713000000000008
  8.3346400000000003 10.8073999999999995 13.8833000000000002
  6.9066299999999998 12.1974000000000000 12.5017999999999994
  6.8629499999999997  9.5115099999999995 15.0416000000000007
  9.3614999999999995  9.3677100000000006 12.4461999999999993
  9.6422000000000008 12.1953999999999994 15.2245000000000008
 12.2393999999999998  9.5592699999999997 15.1279000000000003
 13.6900999999999993 10.7081999999999997 13.8604000000000003
 15.1336999999999993 12.0668000000000006 15.1648999999999994
 17.7139999999999986 12.0617000000000001 12.3550000000000004
 17.6517000000000017  9.2523499999999999 15.3703000000000003
 20.3230000000000004  9.3076299999999996 12.5208999999999993
 19.0580999999999996 10.7538000000000000 13.8719000000000001
 20.2714999999999996 12.0444999999999993 15.3559999999999999
  1.3796200000000001 14.7677999999999994 15.2996999999999996
  4.2571000000000003 12.2034000000000002 15.3163999999999998
  5.6672700000000003 13.5363000000000007 13.9778000000000002
  6.9708800000000002 14.9726999999999997 15.1987000000000005
  9.6923499999999994 14.8961000000000006 12.5457999999999998
 11.1021000000000001 13.4510000000000005 14.0023000000000000
 12.4730000000000008 14.6914999999999996 15.3887000000000000
 16.5582999999999991 13.4377999999999993 14.0055999999999994
 17.8673000000000002 14.8492999999999995 15.3536999999999999
 20.3888999999999996 14.6555999999999997 12.4757999999999996
 21.6544999999999987 13.3773000000000000 14.0048999999999992
  2.8433799999999998 16.1344999999999992 13.9923000000000002
  4.2648500000000000 17.5756000000000014 15.3082999999999991
  8.2133299999999991 16.2327000000000012 13.7454000000000001
  9.4123500000000000 17.5431999999999988 15.4076000000000004
 13.5770999999999997 16.2904000000000018 13.9804999999999993
 14.9303000000000008 17.5600999999999985 15.3770000000000007
 19.1578000000000017 16.1519000000000013 13.8873999999999995
 20.5619000000000014 17.4532999999999987 15.3816000000000006
  1.5480499999999999 20.2048999999999985 15.5359999999999996
  0.2511260000000000 18.8344999999999985 14.0327000000000002
  5.4822300000000004 19.0791000000000004 13.8699999999999992
  6.7161000000000000 20.3639000000000010 15.3870000000000005
 10.6990999999999996 18.9740000000000002 13.8231000000000002
 12.2971000000000004 20.1259000000000015 15.1730000000000000
 15.0495999999999999 20.3854000000000006 12.4571000000000005
 16.2343000000000011 18.9241999999999990 13.8833000000000002
 17.5635000000000012 20.2240000000000002 15.4196000000000009
 19.0524999999999984 21.6915000000000013 13.9684000000000008
  2.7334999999999998  2.5344699999999998 16.8125000000000000
  1.3826400000000001  1.2180599999999999 18.1470999999999982
  5.4505999999999997 21.6433999999999997 16.9816000000000003
  6.8817800000000000  1.3225100000000001 18.3478999999999992
  8.0472800000000007  2.6982900000000001 16.7253000000000007
 11.9307999999999996  1.4655899999999999 18.2463000000000015
 10.9440000000000008 21.6129999999999995 16.7059999999999995
 13.2969000000000008  2.7875999999999999 16.6173999999999999
 17.5670000000000002  1.1701400000000000 18.1306000000000012
 18.9028999999999989  2.4901300000000002 16.6525999999999996
 21.6937999999999995 21.5968000000000018 16.7388000000000012
  5.3514900000000001  5.3248699999999998 16.7390000000000008
  4.0206000000000000  3.8976999999999999 18.1939999999999991
  9.3384900000000002  4.1711200000000002 18.0340999999999987
 10.8135999999999992  5.4240700000000004 16.7712000000000003
 14.8751999999999995  3.9816400000000001 18.0163000000000011
 16.2235000000000014  5.5267900000000001 16.7407000000000004
 21.6710999999999991  5.0980999999999996 16.6417999999999999
 20.2988000000000000  3.9517899999999999 18.1195999999999984
  2.8853599999999999  8.0455900000000007 16.7258999999999993
  1.1858700000000000  6.8181799999999999 18.0003999999999991
  6.6949300000000003  6.7885999999999997 17.9676000000000009
  8.1734200000000001  7.9853899999999998 16.5155999999999992
 12.0475999999999992  6.9385100000000000 18.1061000000000014
 13.5075000000000003  8.2101900000000008 16.5935999999999986
 17.7420000000000009  6.7233799999999997 18.1374999999999993
 19.0946999999999996  8.0680399999999999 16.6654000000000018
  1.3945000000000001 12.2113999999999994 18.1543999999999990
 21.6727999999999987 10.6572999999999993 16.7363999999999997
  4.1432500000000001  9.5369799999999998 18.2271999999999998
  5.5011999999999999 10.7734000000000005 16.6234000000000002
  7.0192699999999997 12.1530000000000005 18.0133000000000010
 10.8050999999999995 10.7797999999999998 16.6667999999999985
 12.1682000000000006 11.9619999999999997 18.1723999999999997
  9.5833499999999994  9.3581800000000008 18.0613999999999990
 15.0106000000000002  9.3331599999999995 18.0515000000000008
 16.3796999999999997 10.7256999999999998 16.7811999999999983
 17.6451999999999991 12.1361000000000008 18.3527999999999984
 20.3683000000000014  9.3288799999999998 18.1235999999999997
  2.8406699999999998 13.5053999999999998 16.7590000000000003
  4.2689000000000004 14.9215999999999998 18.1406999999999989
  8.2725600000000004 13.6220999999999997 16.5722999999999985
  9.5853900000000003 14.9833999999999996 18.1497999999999990
 13.7826000000000004 13.2857000000000003 16.7807999999999993
 15.1263000000000005 14.7284000000000006 18.0579000000000001
 19.0214999999999996 13.5312999999999999 16.9554000000000009
 20.5090000000000003 14.9623000000000008 18.2359000000000009
  1.5334399999999999 17.4769000000000005 18.1551000000000009
  0.1670630000000000 16.1824000000000012 16.7366999999999990
  5.6923300000000001 16.3338999999999999 16.7475999999999985
  6.8409599999999999 17.6310000000000002 18.2967000000000013
 11.0091000000000001 16.1854000000000013 16.7884999999999991
 12.2005999999999997 17.6480999999999995 18.1198000000000015
 16.4893999999999998 16.1875000000000000 16.7851999999999997
 17.7501999999999995 17.4257999999999988 18.3047000000000004
  2.8456700000000001 18.7785000000000011 16.7689999999999984
  4.0997000000000003 20.2221000000000011 18.2212999999999994
  8.0781500000000008 18.9924999999999997 16.7658999999999985
  9.4712999999999994 20.3767999999999994 18.2273999999999994
 13.5905000000000005 18.9770000000000003 16.7395999999999994
 14.7744999999999997 20.4125000000000014 18.1373999999999995
 16.1072999999999986 21.7000999999999991 16.6069999999999993
 19.0807000000000002 18.8482999999999983 16.7515000000000001
 20.3121000000000009 20.2624999999999993 18.1464999999999996
  0.0685520000000000  2.6802500000000000 19.4431000000000012
  4.0281300000000000  1.3677100000000000 21.0048999999999992
  5.4730999999999996  2.6927500000000002 19.6337000000000010
  8.1398200000000003 21.7237000000000009 19.7394999999999996
  9.2337100000000003  1.5435300000000001 21.0167000000000002
 10.5700000000000003  2.8611499999999999 19.5776000000000003
 14.9149999999999991  1.3853100000000000 20.8545000000000016
 16.2746999999999993  2.7417500000000001 19.4749000000000017
 20.4856000000000016  1.2388600000000001 20.9269999999999996
  1.3256500000000000  4.1411600000000002 20.8191999999999986
  2.5423100000000001  5.5169300000000003 19.4393999999999991
  6.5992199999999999  4.2209700000000003 20.9982000000000006
  8.1877499999999994  5.4360600000000003 19.6154000000000011
 12.0992999999999995  4.1848599999999996 20.8382000000000005
 13.5798000000000005  5.4383900000000001 19.4124000000000017
 17.6832999999999991  4.0823999999999998 20.9911999999999992
 18.8811000000000000  5.3564499999999997 19.4853999999999985
 21.5686000000000000  8.0548199999999994 19.5564000000000000
  3.8936299999999999  6.8029200000000003 20.9471999999999987
  5.3863099999999999  8.0609999999999999 19.4842000000000013
  9.4481300000000008  6.8100899999999998 20.9926999999999992
 10.8770000000000007  8.1574600000000004 19.6720000000000006
 14.8368000000000002  6.8192899999999996 20.9201000000000015
 16.4059999999999988  8.0582700000000003 19.4882999999999988
 20.2988000000000000  6.6414299999999997 20.9284999999999997
  1.2802100000000001  9.3444400000000005 20.9965000000000011
  2.6501500000000000 10.7508999999999997 19.6234000000000002
  4.1991600000000000 12.1773000000000007 21.0375000000000014
  6.8305300000000004  9.4164499999999993 20.7818000000000005
  8.2487700000000004 10.7530999999999999 19.4439999999999991
 12.1996000000000002  9.4597400000000000 20.9742999999999995
  9.6230300000000000 12.0305999999999997 20.8555999999999990
 13.5154999999999994 10.6613000000000007 19.4970999999999997
 14.8468999999999998 12.0488000000000000 21.0014000000000003
 17.6561999999999983  9.5060500000000001 20.9618000000000002
 19.0384999999999991 10.7751000000000001 19.7516999999999996
 20.3564000000000007 12.1172000000000004 21.0350000000000001
  1.1891499999999999 14.8056999999999999 21.0262999999999991
  5.3973399999999998 13.3986999999999998 19.4317999999999991
  6.8336499999999996 14.8526000000000007 20.9548999999999985
 10.7777999999999992 13.4578000000000007 19.4523000000000010
 12.0122999999999998 15.0032999999999994 20.8530000000000015
 16.3714000000000013 13.3731000000000009 19.7793999999999990
 17.5536999999999992 14.7082999999999995 21.2313000000000009
 21.6298999999999992 13.4891000000000005 19.5467000000000013
  2.6256499999999998 16.0653000000000006 19.6087999999999987
  3.9190800000000001 17.4292000000000016 21.0172999999999988
  8.2601700000000005 16.2715999999999994 19.5920999999999985
  9.6236899999999999 17.7195000000000000 20.8710999999999984
 13.5388000000000002 16.0748999999999995 19.4659000000000013
 14.8764000000000003 17.4399000000000015 20.8568999999999996
 18.8277000000000001 15.9862000000000002 19.6748000000000012
 20.2226999999999997 17.5448999999999984 20.7738000000000014
  2.7960699999999998 21.6722999999999999 19.6290000000000013
  1.3814800000000000 20.2795999999999985 20.8643999999999998
  5.3848200000000004 18.8051999999999992 19.5676999999999985
  6.7547499999999996 20.3590000000000018 20.9772999999999996
 10.9552999999999994 19.0392000000000010 19.4897999999999989
 12.3329000000000004 20.5677999999999983 21.0198000000000000
 13.4880999999999993  0.1748970000000000 19.3482999999999983
 17.6839000000000013 20.2293999999999983 20.8949999999999996
 16.1107000000000014 18.9663000000000004 19.4314999999999998
 18.9127000000000010 21.6324000000000005 19.4161000000000001
  0.0651674000000000 18.8536999999999999 19.4213999999999984
  2.7122999999999999  2.7218100000000001 22.3109000000000002
  1.4306399999999999  1.3929900000000000 23.5899000000000001
  5.4031099999999999 21.5862000000000016 22.4225999999999992
  6.6415600000000001  1.3120799999999999 23.7464000000000013
  7.8615199999999996  2.8856299999999999 22.4914999999999985
 12.2132000000000005  1.4903200000000001 23.6281999999999996
 10.7433999999999994  0.2997640000000000 22.3282999999999987
 13.5245999999999995  2.8391299999999999 22.1536000000000008
 17.7607999999999997  1.4677300000000000 23.6222999999999992
 16.3250999999999991  0.1604610000000000 22.1850999999999985
 19.2164000000000001  2.5951499999999998 22.2642999999999986
  2.7470900000000000  5.3879599999999996 25.1780000000000008
  4.0283400000000000  4.0855899999999998 23.6955999999999989
  5.3026600000000004  5.5306899999999999 22.3618999999999986
  9.5054599999999994  4.0248999999999997 23.7792999999999992
 10.8932000000000002  5.4072399999999998 22.3787999999999982
 15.1235999999999997  4.0365399999999996 23.6372999999999998
 16.2676000000000016  5.4928800000000004 22.2911000000000001
  0.0444210000000000  5.2640099999999999 22.3909999999999982
 20.5269000000000013  3.9656199999999999 23.7713000000000001
  2.6985500000000000  8.1596600000000006 22.4197999999999986
  1.3611100000000000  6.8274299999999997 23.8067999999999991
  8.1565899999999996  8.1296300000000006 22.3183000000000007
  6.8049200000000001  6.7513199999999998 23.7509000000000015
 12.2617999999999991  6.7012900000000002 23.7258999999999993
 13.4821000000000009  8.1622400000000006 22.3460999999999999
 17.6397000000000013  6.6665799999999997 23.7183999999999990
 18.8382000000000005  8.0297800000000006 22.2959999999999994
  1.2016100000000001 12.1751000000000005 23.7079999999999984
  4.0928699999999996  9.6336399999999998 23.7801000000000009
  5.6222300000000001 10.7941000000000003 22.2747999999999990
  6.8219700000000003 12.1811000000000007 23.8033000000000001
  9.4945299999999992  9.4398099999999996 23.8006999999999991
 10.8767999999999994 10.8440999999999992 22.3567000000000000
 12.2683999999999997 12.1379999999999999 23.8578000000000010
 14.9153000000000002  9.4621800000000000 23.7178000000000004
 16.2439000000000000 10.6811000000000007 22.3213000000000008
 17.6341000000000001 12.0753000000000004 23.8543999999999983
 21.6179999999999986 10.6846999999999994 22.3815999999999988
 20.2123999999999988  9.3289899999999992 23.8234999999999992
  2.7515499999999999 13.4833999999999996 22.3201999999999998
  4.0064099999999998 14.9072999999999993 23.6399000000000008
  8.2657799999999995 13.3607999999999993 22.3090000000000011
  9.4065100000000008 14.8299000000000003 23.6659000000000006
 13.5465999999999998 13.5073000000000008 22.3264999999999993
 14.7875999999999994 14.9634000000000000 23.6071999999999989
 19.1265000000000001 13.3978000000000002 22.5638000000000005
 20.2443999999999988 14.9966000000000008 23.8408000000000015
  1.0799900000000000 17.6386000000000003 23.6399000000000008
 21.4914999999999985 16.2421000000000006 22.3472000000000008
  5.5000900000000001 16.1722000000000001 22.2911000000000001
  6.9423300000000001 17.5909000000000013 23.7061999999999991
 10.7249999999999996 16.2760999999999996 22.3639000000000010
 12.1887000000000008 17.7678000000000011 23.6826000000000008
 16.3221999999999987 16.3169000000000004 22.4018000000000015
 17.7237000000000009 17.7102000000000004 23.6985999999999990
 18.8401999999999994 16.3645999999999994 25.2565999999999988
  2.7030500000000002 18.8424000000000014 22.3377000000000017
  3.9609000000000001 20.2648000000000010 23.8338000000000001
  5.5714800000000002 19.0012000000000008 25.0374000000000017
  8.1116100000000007 18.9803999999999995 22.2154999999999987
  9.4654799999999994 20.4255999999999993 23.6784999999999997
 13.6639999999999997 18.9771999999999998 22.2401000000000018
 14.9794000000000000 20.4851999999999990 23.4423999999999992
  0.1656010000000000 21.6140000000000008 22.1977000000000011
 19.1526999999999994 19.0366999999999997 22.2552999999999983
 20.4990999999999985 20.3435999999999986 23.6619999999999990
  2.8092400000000000  2.5760399999999999 28.0117000000000012
  0.2126280000000000 21.6776000000000018 27.9679000000000002
 21.7250000000000014  2.7374000000000001 25.2003999999999984
  2.8074400000000002  0.1928820000000000 25.1264000000000003
  5.4800700000000004  2.8264399999999998 25.2273999999999994
  4.2202700000000002  1.4862200000000001 26.6221999999999994
  8.1354399999999991  2.6885599999999998 27.9793999999999983
 10.8190000000000008  2.7180399999999998 25.1397000000000013
  9.3666999999999998  1.3917999999999999 26.4589999999999996
 13.6082999999999998  2.7228400000000001 27.7897999999999996
 14.9022000000000006  1.4056900000000001 26.3661999999999992
 13.6189999999999998  0.0374099000000000 24.8403999999999989
 16.4048000000000016  2.6397100000000000 25.0528000000000013
 19.1136000000000017  2.6219000000000001 27.9037000000000006
 20.3768999999999991  1.3356600000000001 26.4770000000000003
  1.4334700000000000  4.1129300000000004 26.7396999999999991
  5.5346900000000003  5.5400200000000002 27.9344000000000001
  8.1885399999999997  5.3992699999999996 25.2380999999999993
  6.7729499999999998  4.0551899999999996 26.6383000000000010
 12.0710999999999995  4.0068599999999996 26.5999000000000017
 10.7606000000000002  5.4915300000000000 27.9649999999999999
 13.6036999999999999  5.2082699999999997 25.1535000000000011
 17.6335000000000015  3.9388800000000002 26.5553999999999988
 16.2232999999999983  5.3860000000000001 27.8283999999999985
 18.9740000000000002  5.2247599999999998 25.0684000000000005
  0.0558775000000000  5.5243000000000002 28.0341999999999985
  2.8068700000000000  8.2206899999999994 27.9680999999999997
  5.2482600000000001  8.1375399999999996 25.1895999999999987
  4.0639500000000002  6.8339100000000004 26.5890999999999984
  8.0821500000000004  8.0864200000000004 27.8311999999999991
 10.9048999999999996  8.1161200000000004 25.2319999999999993
  9.5027200000000001  6.7983700000000002 26.5262999999999991
 14.8935999999999993  6.7986700000000004 26.5552999999999990
 13.6652000000000005  8.1971699999999998 27.8799999999999990
 16.2401000000000018  7.9438500000000003 25.1419999999999995
 21.6548000000000016  8.2005900000000000 25.1720000000000006
 18.9848999999999997  8.0965399999999992 27.8222999999999985
 20.2801000000000009  6.6711499999999999 26.4834999999999994
  2.6201699999999999 10.9341000000000008 24.9979000000000013
 21.6142000000000003 11.0288000000000004 27.8795999999999999
  1.3069700000000000  9.4870300000000007 26.6534000000000013
  3.9522200000000001 12.1501999999999999 26.6146999999999991
  5.3814299999999999 10.8701000000000008 27.8827999999999996
  8.0990900000000003 10.7723999999999993 25.1316999999999986
  6.6877700000000004  9.4106100000000001 26.5352999999999994
 12.2767999999999997  9.4611300000000007 26.5619000000000014
  9.3918199999999992 12.2299000000000007 26.5191000000000017
 10.8117000000000001 10.7599000000000000 27.7748999999999988
 13.6168999999999993 10.9074000000000009 25.2368999999999986
 14.9276000000000000 12.2239000000000004 26.5534999999999997
 16.3125000000000000 10.8994999999999997 27.9323000000000015
 17.4934000000000012  9.3585999999999991 26.5421000000000014
 18.8648999999999987 10.6517999999999997 25.1759999999999984
 20.2000999999999991 12.2228999999999992 26.4284999999999997
  1.4116800000000000 14.9779999999999998 26.3541999999999987
  2.7157600000000000 13.7315000000000005 28.0121000000000002
  5.3460700000000001 13.4946000000000002 25.0894000000000013
  6.7852800000000002 14.9574999999999996 26.3364000000000011
  7.9662300000000004 13.5486000000000004 27.7924000000000007
 10.8010999999999999 13.5808999999999997 25.1315999999999988
 12.2209000000000003 15.0187000000000008 26.4610999999999983
 13.4863000000000000 13.6456999999999997 27.9163999999999994
 16.1141000000000005 13.5569000000000006 24.9121999999999986
 17.5543000000000013 14.8406000000000002 26.2891000000000012
 21.5878000000000014 13.5608000000000004 25.0611999999999995
 19.0291999999999994 13.7779000000000007 27.8388999999999989
  2.5849600000000001 16.3308999999999997 24.9014999999999986
  5.4118899999999996 16.1859999999999999 27.8317000000000014
  4.0862800000000004 17.5216999999999992 26.2454999999999998
  8.2757699999999996 16.2038000000000011 25.1854000000000013
  9.6434800000000003 17.6895999999999987 26.4645000000000010
 13.5505999999999993 16.4028999999999989 25.0041000000000011
 15.1011000000000006 17.7454999999999998 26.3565000000000005
 16.2543000000000006 16.3522999999999996 27.7843000000000018
  0.0805892000000000 16.3314999999999984 27.7814000000000014
 20.4427999999999983 17.7622999999999998 26.5917999999999992
  1.5834299999999999 20.3719999999999999 26.4196999999999989
  2.8880200000000000 18.7886999999999986 27.8222999999999985
  0.0938818000000000 19.0029000000000003 25.2032999999999987
  5.5847600000000002  0.0259267000000000 27.9621999999999993
  8.1435300000000002  0.1234280000000000 25.0014000000000003
  6.7809999999999997 20.3565000000000005 26.4632000000000005
  8.1428700000000003 18.9007000000000005 27.9161000000000001
 10.8978000000000002 19.1235999999999997 25.0899999999999999
 12.2619000000000007 20.5673999999999992 26.4233000000000011
 10.8675999999999995  0.1299890000000000 28.0093999999999994
 13.5831999999999997 19.0540999999999983 27.5719999999999992
 16.2181999999999995  0.0131715000000000 27.7759000000000000
 16.4506000000000014 19.2423000000000002 24.8702000000000005
 17.7012000000000000 20.4137999999999984 26.4707000000000008
 18.9112000000000009 19.0564000000000000 27.9994000000000014
 19.0280999999999985  0.0261772000000000 24.9765000000000015
  1.3326800000000001  1.3198600000000000 29.3537999999999997
 21.6310000000000002  2.7379099999999998 30.7259999999999991
  5.6036900000000003  2.7392400000000001 30.4740000000000002
  7.0561800000000003  1.2782600000000000 29.4060999999999986
 12.3817000000000004  1.3658600000000001 29.3375999999999983
 10.9161000000000001  2.7330000000000001 30.6884000000000015
 17.6787999999999990  1.4563100000000000 29.3039999999999985
 16.2932999999999986  2.6865500000000000 30.8257000000000012
  2.8607399999999998  5.3219200000000004 30.6794000000000011
  4.2041300000000001  4.0247500000000000 29.1766000000000005
  8.1063500000000008  5.2773500000000002 30.6262000000000008
  9.4760500000000008  3.8805999999999998 29.2834000000000003
 14.9442000000000004  3.9805100000000002 29.2820999999999998
 13.5883000000000003  5.4861300000000002 30.5686999999999998
 20.3303000000000011  4.1369999999999996 29.3031000000000006
 18.8883000000000010  5.3896100000000002 30.7360000000000007
  1.5127100000000000  6.7822699999999996 29.4604999999999997
  5.4240100000000000  8.1311999999999998 30.6681999999999988
  6.8101700000000003  6.8804999999999996 29.3198000000000008
 12.2881999999999998  6.8007000000000000 29.2912999999999997
 10.7940000000000005  8.0142399999999991 30.6885000000000012
 17.6356000000000002  6.5932300000000001 29.1375999999999991
 16.1725999999999992  8.0812100000000004 30.7765999999999984
  0.0296188000000000  8.1902000000000008 30.6800999999999995
  1.2910699999999999 12.4399999999999995 29.3842999999999996
  2.5992400000000000 10.9469999999999992 30.6587999999999994
  4.1889900000000004  9.5632300000000008 29.4782000000000011
  6.6952600000000002 12.2651000000000003 29.1950000000000003
  7.9563300000000003 10.8398000000000003 30.5863000000000014
  9.4953000000000003  9.4826099999999993 29.2852999999999994
 12.2182999999999993 12.1397999999999993 29.2209000000000003
 14.8843999999999994  9.4533900000000006 29.2880000000000003
 13.4948999999999995 10.8520000000000003 30.6190999999999995
 17.5875999999999983 12.4276000000000000 29.2393999999999998
 20.3140000000000001  9.5007300000000008 29.3075000000000010
 18.9705000000000013 11.0038999999999998 30.6935000000000002
 21.5115000000000016 13.6865000000000006 30.8893999999999984
  4.1099800000000002 14.8798999999999992 29.3114999999999988
  5.4993200000000000 13.5302000000000007 30.7243999999999993
  9.6674199999999999 14.6861999999999995 29.1661999999999999
 10.8491999999999997 13.4162999999999997 30.6646999999999998
 14.8470999999999993 15.1736000000000004 29.3932000000000002
 16.1764000000000010 13.6404999999999994 30.8231999999999999
 20.3226000000000013 15.1369000000000007 29.3582999999999998
  2.7507600000000001 16.4486999999999988 30.7576999999999998
  1.3835900000000001 17.6682999999999986 29.1719000000000008
  8.3226399999999998 16.2795999999999985 30.5917999999999992
  6.8204700000000003 17.5055000000000014 29.2369999999999983
 10.8469999999999995 16.2915999999999990 27.9100000000000001
 12.2243999999999993 17.8194000000000017 29.1433000000000000
 13.4742999999999995 16.3793000000000006 30.7531999999999996
 17.5201999999999991 17.5938000000000017 29.2582999999999984
 18.9233000000000011 16.4324000000000012 30.6631000000000000
  2.8405600000000000 21.6773999999999987 30.6340000000000003
  5.4880000000000004 18.9008000000000003 30.6114999999999995
  4.0656999999999996 20.2997000000000014 29.1531999999999982
  8.3458699999999997 21.6941999999999986 30.7271999999999998
 10.8339999999999996 19.0325999999999986 30.6687000000000012
  9.5496099999999995 20.3658999999999999 29.1988999999999983
 14.9862000000000002 20.2976999999999990 29.1267999999999994
 13.5905000000000005 21.4599000000000011 30.7127000000000017
 16.2238000000000007 18.9258999999999986 30.5731999999999999
  0.0202331000000000 19.1297999999999995 30.6344999999999992
 20.3247999999999998 20.4896999999999991 29.2394999999999996
 18.8581000000000003  0.0343834000000000 30.6741999999999990
  2.7371699999999999  2.6845500000000002 33.5035999999999987
  4.3123399999999998  1.2566200000000001 32.1328000000000031
  8.3317800000000002  2.6790900000000000 33.4427999999999983
  9.6523299999999992  1.2904899999999999 32.1593999999999980
 13.4466000000000001  2.8060700000000001 33.4975000000000023
 14.7759000000000000  1.3973300000000000 32.0497000000000014
 16.0653000000000006  0.0360888000000000 33.3387000000000029
 21.7224000000000004 21.7414999999999985 33.4352999999999980
 18.8000000000000007  2.7530899999999998 33.4112000000000009
 20.3114999999999988  1.3752100000000000 32.1462999999999965
  1.4243699999999999  4.0567599999999997 32.1024999999999991
  5.6329599999999997  5.4557500000000001 33.5185999999999993
  6.7951499999999996  3.9136400000000000 32.0681000000000012
 10.9025999999999996  5.3344300000000002 33.5381000000000000
 12.2307000000000006  4.1571800000000003 32.0180000000000007
 17.5051999999999985  4.1401199999999996 32.0084000000000017
 16.1937999999999995  5.5283199999999999 33.4217000000000013
 21.6702000000000012  5.3871700000000002 33.3785000000000025
  2.8566600000000002  8.1975400000000000 33.3267000000000024
  4.2297000000000002  6.7217500000000001 32.0914000000000001
  8.2456200000000006  8.1624700000000008 33.3725999999999985
  9.5090100000000000  6.6564500000000004 32.0525000000000020
 13.3831000000000007  8.1663700000000006 33.4450999999999965
 14.8048999999999999  6.8516800000000000 32.0476000000000028
 20.3632999999999988  6.6902999999999997 32.0707000000000022
 18.8907999999999987  8.0876699999999992 33.4040000000000035
  1.2849999999999999  9.5018399999999996 31.9913999999999987
  5.5064399999999996 10.8991000000000007 33.3950000000000031
  4.0630100000000002 12.2940000000000005 32.1396000000000015
  6.6942000000000004  9.3535799999999991 32.0540000000000020
 10.8876000000000008 10.7933000000000003 33.4480999999999966
 12.0867000000000004  9.3777899999999992 32.0227000000000004
  9.4139300000000006 12.1670999999999996 32.1709000000000032
 14.8249999999999993 12.2233999999999998 32.1426000000000016
 16.1589999999999989 10.8414999999999999 33.4829999999999970
 17.5960999999999999  9.5995100000000004 32.0407000000000011
 20.2440999999999995 12.2211999999999996 32.1552999999999969
  0.0796002000000000 10.8396000000000008 33.3823999999999970
  2.6943000000000001 13.6404999999999994 33.5298999999999978
  1.3934000000000000 15.1115999999999993 32.1071999999999989
  6.7189699999999997 15.1206999999999994 32.0257000000000005
  8.0457199999999993 13.6613000000000007 33.4823000000000022
 12.1539000000000001 14.9380000000000006 32.0450999999999979
 13.4662000000000006 13.7466000000000008 33.5938000000000017
 17.7779999999999987 15.0347000000000008 32.1452000000000027
 18.9395999999999987 13.5770999999999997 33.5178999999999974
 21.6517000000000017 16.1981000000000002 33.5262999999999991
  5.5296500000000002 16.4011999999999993 33.5617000000000019
  4.1676000000000002 17.6722000000000001 32.1837999999999980
 10.7477999999999998 16.3319000000000010 33.5326000000000022
  9.5433800000000009 17.5977999999999994 32.0559999999999974
 14.8855000000000004 17.5795999999999992 32.0332999999999970
 16.2796999999999983 16.3624000000000009 33.4536000000000016
 20.4156000000000013 17.7291999999999987 32.0193999999999974
  1.4906600000000001 20.4096000000000011 32.0673000000000030
  2.6691799999999999 18.8141999999999996 33.5930000000000035
  5.4897799999999997 21.6479999999999997 33.5067000000000021
  6.8163499999999999 20.2698000000000000 31.9863000000000000
  8.1034400000000009 18.9493000000000009 33.5041000000000011
 12.2567000000000004 20.2742000000000004 32.1007000000000033
 10.8335000000000008 21.6591999999999985 33.5185000000000031
 13.5793999999999997 18.9871000000000016 33.3838999999999970
 17.5010000000000012 20.2944999999999993 31.9494000000000007
 18.9124000000000017 18.9826000000000015 33.4268000000000001
  1.3759100000000000  1.3074699999999999 34.7969000000000008
 21.6406999999999989  2.7902499999999999 36.1420999999999992
  2.6105999999999998 21.6642000000000010 36.2775000000000034
  5.3401600000000000  2.6764500000000000 36.2113000000000014
  6.8560900000000000  1.3560500000000000 34.9078999999999979
 10.7373999999999992  2.9047600000000000 36.4425999999999988
 12.0558999999999994  1.3986400000000001 34.9238000000000000
 17.4392999999999994  1.4469500000000000 34.7704999999999984
 16.1854000000000013  2.8211599999999999 36.1319999999999979
 19.0051999999999985 21.6900000000000013 35.9806000000000026
  2.7694800000000002  5.3382199999999997 36.1873999999999967
  4.2508499999999998  4.2331500000000002 34.8395999999999972
  8.2921499999999995  5.4379099999999996 36.2648000000000010
  9.5654000000000003  4.1241399999999997 34.9266999999999967
 14.7582000000000004  4.0982599999999998 34.8250000000000028
 13.6956000000000007  5.3645399999999999 36.3449000000000026
 20.2282000000000011  4.1503800000000002 34.7682000000000002
 19.0540999999999983  5.6115500000000003 36.1546000000000021
  1.4498400000000000  6.7986500000000003 34.8763000000000005
  5.5802899999999998  8.2009899999999991 36.2263999999999982
  4.1834800000000003  6.7491199999999996 37.5148000000000010
  6.9747000000000003  6.8087700000000000 34.9602999999999966
 10.8681999999999999  8.1763600000000007 36.3541000000000025
 12.2605000000000004  6.6672599999999997 34.8800999999999988
  9.5449999999999999  9.4988399999999995 34.8395000000000010
 16.3210000000000015  8.2451399999999992 36.2423000000000002
 17.4730999999999987  6.8008400000000000 34.8432999999999993
 21.7033999999999985  8.0907199999999992 36.0707000000000022
  2.6407400000000001 10.8024000000000004 36.2019000000000020
  1.3431100000000000 12.1449999999999996 34.7721000000000018
  4.2257400000000001  9.5180699999999998 34.8421000000000021
  8.2961500000000008 10.7805000000000000 36.2922000000000011
  6.8109999999999999 12.1775000000000002 34.7623999999999995
 12.1123999999999992 12.1950000000000003 34.9027000000000029
 14.8575999999999997  9.4408300000000001 34.8817999999999984
 13.4514999999999993 10.9631000000000007 36.2886000000000024
 17.6093000000000011 12.2037999999999993 34.9658000000000015
 20.2870999999999988  9.4498300000000004 34.6736000000000004
 18.8902000000000001 10.7471999999999994 36.1424000000000021
  4.1334700000000000 15.0135000000000005 34.8603999999999985
  5.4161900000000003 13.4573999999999998 36.2302999999999997
  9.4642499999999998 15.0760000000000005 34.9277000000000015
 10.8607999999999993 13.6504999999999992 36.3314000000000021
 14.9540000000000006 14.9670000000000005 34.8635000000000019
 16.2192000000000007 13.6525999999999996 36.3108000000000004
 21.5873999999999988 13.3528000000000002 36.1531999999999982
 20.2822999999999993 14.8140000000000001 35.0287000000000006
  1.3749899999999999 17.4296000000000006 34.9453000000000031
  2.6050599999999999 16.1095000000000006 36.4365999999999985
  6.8129099999999996 17.6179999999999986 34.8802999999999983
  8.0524000000000004 16.3674999999999997 36.3406999999999982
 12.1959999999999997 17.7486999999999995 34.8119999999999976
 13.6396999999999995 16.5203999999999986 36.1672000000000011
 17.6411000000000016 17.7287999999999997 34.7828000000000017
 18.8522999999999996 16.2556000000000012 36.2505999999999986
  0.0101396000000000 18.8867000000000012 36.1402000000000001
  4.0083399999999996 20.3539999999999992 34.8575999999999979
  5.2930099999999998 18.9221000000000004 36.3633999999999986
  8.2844400000000000  0.0174597000000000 36.2995000000000019
  9.4654100000000003 20.3000000000000007 34.8849999999999980
 10.8162000000000003 18.9910999999999994 36.2520999999999987
 13.4794000000000000  0.1070510000000000 36.2578000000000031
 14.8579000000000008 20.3770999999999987 34.9376000000000033
 16.3365000000000009 18.9278000000000013 36.2364999999999995
 20.4022000000000006 20.3305000000000007 34.8288000000000011
  0.0514747000000000  0.0655686000000000 38.9258999999999986
  2.8145199999999999  2.7602000000000002 38.9876999999999967
  3.8563800000000001  1.3568199999999999 37.5581999999999994
  8.0115700000000007  2.7460100000000001 39.0341000000000022
 10.8900000000000006  0.0767851000000000 39.2627000000000024
  9.5831000000000000  1.4867200000000000 37.7941000000000003
 14.7820999999999998  1.5157900000000000 37.6492999999999967
 13.4634000000000000  2.6686399999999999 39.2723999999999975
 20.3814999999999991  1.3288100000000000 37.4001999999999981
 19.2206000000000010  2.7793500000000000 38.9324000000000012
  1.3533599999999999  4.0824999999999996 37.5801000000000016
 21.6646000000000001  5.5376200000000004 38.8811999999999998
  5.5131300000000003  5.4796899999999997 38.9615999999999971
  6.7883300000000002  4.0462999999999996 37.5934000000000026
 12.1664999999999992  4.1317100000000000 37.8526000000000025
 10.7981999999999996  5.4385599999999998 39.1278000000000006
 14.9959000000000007  3.9897399999999998 40.4221000000000004
 17.8170999999999999  4.0706699999999998 37.4273000000000025
 16.5146000000000015  5.3479700000000001 38.9170000000000016
  2.7081400000000002  8.2092899999999993 38.8063000000000002
  6.7955500000000004  6.7859699999999998 40.5309000000000026
  8.4398099999999996  8.1459200000000003 39.0287999999999968
 12.2998999999999992  6.7815500000000002 40.2567999999999984
  9.6081299999999992  6.6863799999999998 37.7256000000000000
 13.5757999999999992  8.2373200000000004 38.9679000000000002
 15.0145999999999997  6.8246799999999999 37.4359999999999999
 17.7432000000000016  6.7886499999999996 40.3134999999999977
 19.0188999999999986  8.1854099999999992 39.0767999999999986
 20.3565000000000005  6.8468700000000000 37.6067999999999998
  1.2825200000000001 12.2752999999999997 40.3826999999999998
  1.2441100000000000  9.5487900000000003 37.4348999999999990
  3.9989800000000000  9.4077699999999993 40.2993000000000023
  5.4610099999999999 10.7668999999999997 38.9832999999999998
  4.0592600000000001 12.0745000000000005 37.6644999999999968
  6.8691100000000000 12.1018000000000008 40.4380999999999986
  6.9351900000000004  9.4878900000000002 37.5638000000000005
 10.8832000000000004 11.0894999999999992 39.2595000000000027
 12.0873000000000008  9.6775900000000004 37.8348999999999975
  9.5519400000000001 12.4047000000000001 37.7520999999999987
  9.7950300000000006  9.4990699999999997 40.4669999999999987
 12.2586999999999993 12.6019000000000005 40.6891999999999996
 14.9341000000000008 12.2441999999999993 37.6212999999999980
 14.7280999999999995  9.5327800000000007 40.4442000000000021
 16.3446999999999996 10.8565000000000005 39.0427000000000035
 17.8402999999999992 12.0953999999999997 40.4262000000000015
 17.7044999999999995  9.5654900000000005 37.7280999999999977
 20.1741999999999990 12.2010000000000005 37.6751000000000005
 20.5061999999999998  9.5060300000000009 40.3329000000000022
 21.6554000000000002 10.8604000000000003 38.9155999999999977
  2.7834200000000000 13.4228000000000005 39.0011000000000010
  1.1841999999999999 14.6692999999999998 37.6347000000000023
  4.0032500000000004 14.8660999999999994 40.6644999999999968
  8.0789399999999993 13.7606000000000002 39.2008000000000010
  6.7362900000000003 14.9527000000000001 37.6445000000000007
 12.1885999999999992 15.1198999999999995 37.5596000000000032
 13.4977000000000000 13.7514000000000003 39.1349000000000018
 17.6104999999999983 15.0846999999999998 37.6565999999999974
 19.0719999999999992 13.6501000000000001 39.1903000000000006
 20.3160999999999987 15.0631000000000004 40.6319999999999979
  5.2697000000000003 16.2793999999999990 39.1886999999999972
  3.8833400000000000 17.4460000000000015 37.7965999999999980
  9.4427000000000003 17.7642999999999986 37.6557999999999993
 10.8937000000000008 16.3865000000000016 39.0251000000000019
 12.1870999999999992 17.7307999999999986 40.3592999999999975
 14.8271999999999995 17.7983000000000011 37.8230999999999966
 16.2323999999999984 16.3720999999999997 38.9712999999999994
 21.6995000000000005 16.2268000000000008 39.0876000000000019
 20.3537999999999997 17.6838000000000015 37.6666999999999987
  2.6096900000000001 19.0442000000000000 38.8566000000000003
  1.1839500000000001 20.3659999999999997 37.5414999999999992
  5.2579900000000004  0.0914304000000000 38.9438999999999993
  7.9370900000000004 19.0066999999999986 39.1233999999999966
  6.6313500000000003 20.3815999999999988 37.6713999999999984
 12.0106999999999999 20.4836999999999989 37.5641000000000034
 13.4960000000000004 19.2448000000000015 38.9662999999999968
 16.1709999999999994  0.1813180000000000 39.0247000000000028
 17.5483000000000011 20.5122999999999998 37.5617000000000019
 18.9741000000000000 19.1184000000000012 38.9406000000000034
 20.5025000000000013 20.3857999999999997 40.3432000000000031
  0.0652440000000000  2.9474100000000001 41.6341999999999999
  2.6793000000000000 21.6709999999999994 41.7062000000000026
  1.3577100000000000  1.4311799999999999 40.4061000000000021
  5.3605999999999998  2.8026900000000001 41.9279000000000011
  3.8703799999999999  1.3369400000000000 43.1644999999999968
  8.0322099999999992  0.0735121000000000 41.5844000000000023
  6.6026699999999998  1.5196300000000000 40.3248000000000033
 10.8201000000000001  2.5858099999999999 42.1360999999999990
 12.2680000000000007  1.2145500000000000 40.7770999999999972
 15.1486000000000001  1.4342900000000001 43.3933999999999997
 16.3908999999999985  2.7195600000000000 41.7098999999999975
 17.7948999999999984  1.4840700000000000 40.2627999999999986
 20.4879999999999995  1.7375000000000000 43.1058999999999983
  2.8668800000000001  5.5083000000000002 41.7175000000000011
  1.4851000000000001  4.1970000000000001 42.9166000000000025
  4.0824600000000002  4.0960999999999999 40.3823999999999970
  8.3385899999999999  5.5899500000000000 42.0634999999999977
  6.7672800000000004  4.0786400000000000 43.3513000000000019
 12.1143000000000001  4.3922999999999996 43.0533000000000001
 10.4908999999999999  6.2977499999999997 43.1811999999999969
  9.5449699999999993  3.9591900000000000 40.5311999999999983
 13.6873000000000005  5.5121900000000004 41.7306999999999988
 17.5753999999999984  4.2102899999999996 43.0142000000000024
 18.9937000000000005  5.4718799999999996 41.7667000000000002
 20.4218000000000011  4.2132600000000000 40.3755000000000024
 21.7283000000000008  8.1508500000000002 41.7845000000000013
  1.4114199999999999  6.8376900000000003 40.3018000000000001
  5.2743500000000001  7.9785100000000000 41.7989999999999995
  4.1325399999999997  6.7207299999999996 43.3286000000000016
 11.1696000000000009  8.1415900000000008 41.7616000000000014
 15.0495000000000001  6.7919499999999999 43.1972000000000023
 16.1600000000000001  8.0777000000000001 41.6570999999999998
 20.2223000000000006  6.8191699999999997 43.2291000000000025
  2.7066300000000001 10.6960999999999995 41.7774000000000001
  1.1953400000000001  9.6674500000000005 43.2404000000000011
  4.0372300000000001 12.0159000000000002 43.2257000000000033
  8.2473399999999994 10.6190999999999995 41.8109999999999999
  6.8588199999999997  9.2695299999999996 43.0685000000000002
 12.4925999999999995  9.5312199999999994 43.1037999999999997
  9.4684399999999993 12.0304000000000002 43.3521000000000001
 13.6412999999999993 11.0693999999999999 41.7338999999999984
 15.3210999999999995 11.9786999999999999 43.0968000000000018
 17.6382000000000012  9.3612699999999993 43.0686999999999998
 19.0301000000000009 10.7163000000000004 41.8457999999999970
  5.2838900000000004 13.2368000000000006 41.6011000000000024
  6.4740900000000003 14.6556999999999995 43.1963999999999970
  9.4692500000000006 14.9391999999999996 40.5084999999999980
 10.7681000000000004 13.7454000000000001 42.1668999999999983
 12.2926000000000002 15.2592999999999996 43.2612000000000023
 15.0288000000000004 15.0332000000000008 40.5371000000000024
 16.5096999999999987 13.5319000000000003 41.8340000000000032
 18.3923999999999985 14.1539999999999999 43.2117000000000004
  0.0531849000000000 13.5371000000000006 41.9748999999999981
 20.0538999999999987 12.3056000000000001 43.2205000000000013
  1.3551500000000001 17.7691000000000017 40.3280999999999992
  2.6142699999999999 16.3825000000000003 41.7775000000000034
  3.8915899999999999 17.5882000000000005 43.3898999999999972
  6.7016000000000000 17.6478000000000002 40.6366999999999976
  7.9258699999999997 16.0378000000000007 41.9356000000000009
  9.3464600000000004 17.6094000000000008 42.9930000000000021
 13.6394000000000002 16.4979000000000013 41.7329000000000008
 15.2014999999999993 17.9242999999999988 42.9258999999999986
 17.6508000000000003 17.7514000000000003 40.2391000000000005
 18.7205000000000013 16.2999000000000009 41.9909999999999997
 20.2198999999999991 17.6051000000000002 43.2586999999999975
  1.1326400000000001 20.6132999999999988 43.1938000000000031
  3.8592000000000000 20.2896000000000001 40.3230000000000004
  5.1967299999999996 18.9053000000000004 41.8823000000000008
  6.5136700000000003 20.3101999999999983 43.0281000000000020
  9.3244900000000008 20.5834000000000010 40.2492000000000019
 10.5641999999999996 19.1447000000000003 41.6274999999999977
 14.8003999999999998 20.6574999999999989 40.4600000000000009
 13.7424999999999997 21.4782000000000011 42.4932999999999979
 16.3160999999999987 19.3395000000000010 41.5060000000000002
 17.6175999999999995 20.6565000000000012 43.0534000000000034
 19.3304000000000009  0.1746450000000000 41.7406000000000006
 21.6960000000000015 18.9996000000000009 41.7237999999999971
  2.1232899999999999  2.2585400000000000 44.2862999999999971
  0.3924480000000000  0.7398500000000000 44.5900000000000034
  2.6022799999999999  3.1763100000000000 46.1567000000000007
  5.8695000000000004  0.4346420000000000 44.2961999999999989
  7.4365899999999998  1.8215900000000000 43.3196000000000012
  9.6238200000000003  1.1700999999999999 43.5786999999999978
  9.8364200000000004  1.6247400000000001 45.5848999999999975
 13.5357000000000003  3.0270600000000001 46.3134999999999977
 17.1286999999999985  0.6830120000000000 44.6274999999999977
 18.6109000000000009  2.5731600000000001 44.2060999999999993
  0.5869690000000000  6.0699199999999998 44.4209000000000032
  6.0232000000000001  5.8867900000000004 44.7456999999999994
  5.8341099999999999  5.1823899999999998 46.6963000000000008
 14.0831999999999997  3.4860699999999998 44.4241999999999990
 15.9960000000000004  5.0086199999999996 44.5523000000000025
  0.0381191000000000  5.5219100000000001 46.2866000000000000
  2.3117399999999999  7.8381299999999996 44.2721999999999980
  7.7661800000000003  7.4071300000000004 44.2503000000000029
  9.9831500000000002  7.8014099999999997 44.9904999999999973
 14.2292000000000005  8.7119999999999997 44.4050999999999974
 17.3692999999999991  7.3055199999999996 46.0294000000000025
 18.8653000000000013  8.0991499999999998 44.7411000000000030
  0.3680710000000000 11.7501999999999995 44.1116999999999990
  5.5020600000000002 10.6992999999999991 46.3537000000000035
  5.9978199999999999 11.0660000000000007 44.3327000000000027
 10.6463999999999999 10.1666000000000007 44.4709000000000003
 11.4385999999999992 10.6205999999999996 46.3430999999999997
 16.1250000000000000 10.2645999999999997 44.6358999999999995
 20.2109999999999985  9.4747800000000009 45.6081999999999965
  1.4151899999999999 15.0488999999999997 43.2871999999999986
  2.5615399999999999 13.5726999999999993 46.5035000000000025
  3.0277300000000000 13.8524999999999991 44.5277999999999992
  7.6746999999999996 12.8668999999999993 44.2798999999999978
 14.6465999999999994 14.0823000000000000 43.9016999999999982
 16.8649999999999984 14.7204999999999995 44.8263000000000034
  0.3152540000000000 16.7952000000000012 44.5401999999999987
  1.8440000000000001 18.6506000000000007 44.3806999999999974
  4.7571300000000001 15.6658000000000008 44.5840000000000032
  2.4151199999999999 19.1515999999999984 46.3207000000000022
 11.0915999999999997 16.8929000000000009 44.5176999999999978
 10.4182000000000006 16.3684000000000012 46.3066999999999993
 17.0054000000000016 16.9700999999999986 43.9040999999999997
 18.5764999999999993 18.8052999999999990 44.3500999999999976
 21.2493000000000016 16.2981000000000016 46.3376999999999981
 21.3957000000000015  0.6048000000000000 46.4859000000000009
  5.8084899999999999  0.1300780000000000 46.2931999999999988
  8.2955100000000002 19.3777000000000008 44.2479000000000013
 10.2850000000000001 20.6434999999999995 43.5585000000000022
 11.7506000000000004 19.2576999999999998 44.8008000000000024
 13.9499999999999993 19.6479999999999997 44.0350999999999999
 15.1935000000000002 20.3170000000000002 45.5426000000000002
 18.9323000000000015 19.2436000000000007 46.2907999999999973
 11.6110000000000007 19.7047999999999988 46.7227999999999994
 16.8702000000000005  1.9901300000000000 52.9859000000000009
 16.3004999999999995 13.3642000000000003 51.2909000000000006
 14.2988999999999997 13.2619000000000007 50.9386999999999972
 12.2349999999999994 13.7868999999999993 50.2070000000000007
 13.4009999999999998 18.1353000000000009 53.1593000000000018
 13.4146000000000001 16.2230999999999987 52.5814000000000021
Cartesian
  0.0000000000000000  0.0000000000000000  0.0000000000000000
  0.0000000000000000  0.0000000000000000  0.0000000000000000
  0.0000000000000000  0.0000000000000000  0.0000000000000000
  0.0000000000000000  0.0000000000000000  0.0000000000000000
  0.0000000000000000  0.0000000000000000  0.0000000000000000
  0.0000000000000000  0.0000000000000000  0.0000000000000000
  0.0000000000000000  0.0000000000000000  0.0000000000000000
  0.0000000000000000  0.0000000000000000  0.0000000000000000
  0.0000000000000000  0.0000000000000000  0.0000000000000000
  0.0000000000000000  0.0000000000000000  0.0000000000000000
  0.0000000000000000  0.0000000000000000  0.0000000000000000
  0.0000000000000000  0.0000000000000000  0.0000000000000000
  0.0000000000000000  0.0000000000000000  0.0000000000000000
  0.0000000000000000  0.0000000000000000  0.0000000000000000
  0.0000000000000000  0.0000000000000000  0.0000000000000000
  0.0000000000000000  0.0000000000000000  0.0000000000000000
  0.0000000000000000  0.0000000000000000  0.0000000000000000
  0.0000000000000000  0.0000000000000000  0.0000000000000000
  0.0000000000000000  0.0000000000000000  0.0000000000000000
  0.0000000000000000  0.0000000000000000  0.0000000000000000
  0.0000000000000000  0.0000000000000000  0.0000000000000000
  0.0000000000000000  0.0000000000000000  0.0000000000000000
  0.0000000000000000  0.0000000000000000  0.0000000000000000
  0.0000000000000000  0.0000000000000000  0.0000000000000000
  0.0000000000000000  0.0000000000000000  0.0000000000000000
  0.0000000000000000  0.0000000000000000  0.0000000000000000
  0.0000000000000000  0.0000000000000000  0.0000000000000000
  0.0000000000000000  0.0000000000000000  0.0000000000000000
  0.0000000000000000  0.0000000000000000  0.0000000000000000
  0.0000000000000000  0.0000000000000000  0.0000000000000000
  0.0000000000000000  0.0000000000000000  0.0000000000000000
  0.0000000000000000  0.0000000000000000  0.0000000000000000
  0.0000000000000000  0.0000000000000000  0.0000000000000000
  0.0000000000000000  0.0000000000000000  0.0000000000000000
  0.0000000000000000  0.0000000000000000  0.0000000000000000
  0.0000000000000000  0.0000000000000000  0.0000000000000000
  0.0000000000000000  0.0000000000000000  0.0000000000000000
  0.0000000000000000  0.0000000000000000  0.0000000000000000
  0.0000000000000000  0.0000000000000000  0.0000000000000000
  0.0000000000000000  0.0000000000000000  0.0000000000000000
  0.0000000000000000  0.0000000000000000  0.0000000000000000
  0.0000000000000000  0.0000000000000000  0.0000000000000000
  0.0000000000000000  0.0000000000000000  0.0000000000000000
  0.0000000000000000  0.0000000000000000  0.0000000000000000
  0.0000000000000000  0.0000000000000000  0.0000000000000000
  0.0000000000000000  0.0000000000000000  0.0000000000000000
  0.0000000000000000  0.0000000000000000  0.0000000000000000
  0.0000000000000000  0.0000000000000000  0.0000000000000000
  0.0000000000000000  0.0000000000000000  0.0000000000000000
  0.0000000000000000  0.0000000000000000  0.0000000000000000
  0.0000000000000000  0.0000000000000000  0.0000000000000000
  0.0000000000000000  0.0000000000000000  0.0000000000000000
  0.0000000000000000  0.0000000000000000  0.0000000000000000
  0.0000000000000000  0.0000000000000000  0.0000000000000000
  0.0000000000000000  0.0000000000000000  0.0000000000000000
  0.0000000000000000  0.0000000000000000  0.0000000000000000
  0.0000000000000000  0.0000000000000000  0.0000000000000000
  0.0000000000000000  0.0000000000000000  0.0000000000000000
  0.0000000000000000  0.0000000000000000  0.0000000000000000
  0.0000000000000000  0.0000000000000000  0.0000000000000000
  0.0000000000000000  0.0000000000000000  0.0000000000000000
  0.0000000000000000  0.0000000000000000  0.0000000000000000
  0.0000000000000000  0.0000000000000000  0.0000000000000000
  0.0000000000000000  0.0000000000000000  0.0000000000000000
  0.0000000000000000  0.0000000000000000  0.0000000000000000
  0.0000000000000000  0.0000000000000000  0.0000000000000000
  0.0000000000000000  0.0000000000000000  0.0000000000000000
  0.0000000000000000  0.0000000000000000  0.0000000000000000
  0.0000000000000000  0.0000000000000000  0.0000000000000000
  0.0000000000000000  0.0000000000000000  0.0000000000000000
  0.0000000000000000  0.0000000000000000  0.0000000000000000
  0.0000000000000000  0.0000000000000000  0.0000000000000000
  0.0000000000000000  0.0000000000000000  0.0000000000000000
  0.0000000000000000  0.0000000000000000  0.0000000000000000
  0.0000000000000000  0.0000000000000000  0.0000000000000000
  0.0000000000000000  0.0000000000000000  0.0000000000000000
  0.0000000000000000  0.0000000000000000  0.0000000000000000
  0.0000000000000000  0.0000000000000000  0.0000000000000000
  0.0000000000000000  0.0000000000000000  0.0000000000000000
  0.0000000000000000  0.0000000000000000  0.0000000000000000
  0.0000000000000000  0.0000000000000000  0.0000000000000000
  0.0000000000000000  0.0000000000000000  0.0000000000000000
  0.0000000000000000  0.0000000000000000  0.0000000000000000
  0.0000000000000000  0.0000000000000000  0.0000000000000000
  0.0000000000000000  0.0000000000000000  0.0000000000000000
  0.0000000000000000  0.0000000000000000  0.0000000000000000
  0.0000000000000000  0.0000000000000000  0.0000000000000000
  0.0000000000000000  0.0000000000000000  0.0000000000000000
  0.0000000000000000  0.0000000000000000  0.0000000000000000
  0.0000000000000000  0.0000000000000000  0.0000000000000000
  0.0000000000000000  0.0000000000000000  0.0000000000000000
  0.0000000000000000  0.0000000000000000  0.0000000000000000
  0.0000000000000000  0.0000000000000000  0.0000000000000000
  0.0000000000000000  0.0000000000000000  0.0000000000000000
  0.0000000000000000  0.0000000000000000  0.0000000000000000
  0.0000000000000000  0.0000000000000000  0.0000000000000000
  0.0002527745287520  0.0000250847897454 -0.0002580645098807
  0.0001020967434574  0.0000238287826242  0.0001356965041837
 -0.0001886792237849  0.0000930195392558 -0.0000706748513441
 -0.0000398103471604 -0.0001001503720847 -0.0000295573523233
 -0.0001492148662987  0.0000693777489763  0.0000207308111803
 -0.0000062370022432 -0.0001523402585010 -0.0000189675559195
 -0.0000075006182660  0.0001590802378494 -0.0000868735567029
 -0.0000544495866121  0.0001018921645006  0.0001312065344490
  0.0001054866526616  0.0000806030322236  0.0001280409442763
  0.0001212650738829 -0.0001221171272921 -0.0000753561203489
 -0.0000084664103970 -0.0000746447598362 -0.0000343192685063
 -0.0000458396838170 -0.0001559695609756 -0.0000716589837992
 -0.0000402783663878 -0.0000752502417661  0.0000600686886238
  0.0000746404529108 -0.0002846113213459 -0.0000810872024212
  0.0001276651650347 -0.0000548655638241 -0.0001489496314759
 -0.0001387974904753  0.0000035320485099 -0.0000036586254584
  0.0000421464952822  0.0000243048414456  0.0001960734968845
  0.0001958926060174  0.0001562412561866  0.0000369613160050
  0.0000316999041481  0.0000219820089015  0.0000088765014777
  0.0000580986291615 -0.0001140204664412  0.0002088209193520
  0.0000119163653196 -0.0000428847740787 -0.0002175603888197
  0.0000314056693609  0.0000480448296244  0.0001752193640733
  0.0000106021429233  0.0000669647940182  0.0000641480648033
 -0.0000628527569877  0.0001832047626847 -0.0001475197322414
 -0.0000149005621506  0.0000009534168987 -0.0001332189453445
 -0.0001050520121061  0.0000464067623286 -0.0000009583734520
 -0.0001879255118391  0.0000540300202955 -0.0000791239622574
 -0.0000169851140466 -0.0001505503720847  0.0001228177204914
 -0.0001046816165213 -0.0000483922549404  0.0000952695488695
  0.0000559003026527 -0.0001351290667616  0.0000174392075485
 -0.0000681811415346 -0.0002267675186042 -0.0001479669346626
  0.0000012685582197  0.0001718524251380  0.0002317901114474
 -0.0000706500865231 -0.0001324035008011 -0.0002509652611714
 -0.0000308397393626 -0.0000435455282179 -0.0001076490881253
 -0.0000355379848318  0.0001182204365320 -0.0000301734580025
 -0.0001809296293395 -0.0001984182588570 -0.0001535623485847
  0.0000106716638775  0.0001747786220402  0.0001796102745238
  0.0000785436040591 -0.0000206542914723 -0.0000285100516290
  0.0001896999651059 -0.0000726632152395  0.0000439683247285
  0.0000337109511839  0.0001135829546021 -0.0000287387134769
 -0.0001227322998042 -0.0000376834438312 -0.0000127430078690
 -0.0000466942495994 -0.0001879057717643 -0.0000910218436888
  0.0001094439992879  0.0000691573779598 -0.0000713833405733
  0.0000523456535517 -0.0000025588771800 -0.0000238063507210
  0.0001366892504896  0.0000916811621862  0.0000360521958341
  0.0001152924450774 -0.0002015590842087 -0.0000534134121417
  0.0001234594523767 -0.0000675074666192 -0.0001232067794196
  0.0000144649166459 -0.0000365180615987 -0.0000212481805946
 -0.0000308552084031 -0.0001673240519850 -0.0001320162364251
 -0.0001722317934841 -0.0000845273590885 -0.0000848966779420
 -0.0000105897605127 -0.0002082771700196 -0.0000910878832117
  0.0000298100252804  0.0001549071860424 -0.0001232304675093
 -0.0000454617511127 -0.0002340778066584  0.0001189285668506
 -0.0002056477920598  0.0000659103151148 -0.0000982359437422
  0.0000414695901727 -0.0000741788940716 -0.0000942556268471
  0.0000323686619904  0.0000510402962435 -0.0001592284678654
 -0.0000516583400392 -0.0000584446188357  0.0000392317835143
  0.0000119180880897 -0.0001350615915969 -0.0000297487592665
  0.0001917475492256  0.0002055193021186  0.0000689061406445
 -0.0001093686280933  0.0000233502114296  0.0000891465365854
  0.0000560847826242 -0.0000486230343600 -0.0001035230535873
 -0.0001007267822681  0.0000273576619548 -0.0001151094007477
 -0.0000423417425672  0.0001825522634858  0.0001139870877693
  0.0000676872807549 -0.0001751314310130  0.0001524755677408
  0.0000177336935731  0.0001142164315471  0.0001093022296600
  0.0001074829125868 -0.0001597363261528  0.0001864909467687
  0.0000156704609578 -0.0000057023333452  0.0001351843389710
 -0.0000527368659427  0.0000800183670999  0.0001926401595158
 -0.0002962604778351 -0.0001283259191739 -0.0000671241502581
 -0.0000246226207584 -0.0000262354566495  0.0001344133993235
  0.0000555858970981 -0.0000587805590173  0.0001382250283069
  0.0001539086971693  0.0000977754616343 -0.0000365815887484
  0.0000443092896564  0.0000721173124444  0.0000334999836212
  0.0001070909823749  0.0000271061375111  0.0002330326594267
 -0.0000052155789923  0.0000209993120883 -0.0000134819685953
  0.0002166929022610  0.0000168641612249 -0.0000902652604593
  0.0000643178294463 -0.0000243032622396  0.0000396334043083
  0.0000100558812177  0.0000464832102546  0.0001393538016735
 -0.0000860459092042 -0.0000847947473740 -0.0002033970646252
  0.0000854633975432  0.0000309508580381  0.0000543577055368
  0.0001208717080292  0.0000301989406445 -0.0000745295495816
  0.0001159614541570 -0.0000259502305145 -0.0000191648131031
  0.0000105512853124 -0.0000289917094534 -0.0001262930503828
 -0.0000523047377604  0.0001055681253338 -0.0000262599343422
  0.0001252468264198  0.0000944555399680  0.0000916230186933
 -0.0000885952501335 -0.0000155722630586 -0.0000227624596760
  0.0000074084141713 -0.0000114064612427 -0.0000618718547267
 -0.0000811230934663  0.0001518234274524 -0.0000450123952288
 -0.0001873857105216  0.0001062981491900  0.0000936996745594
  0.0000297603161830 -0.0000291741077443 -0.0000151206819299
  0.0001434209748976 -0.0000758621840840 -0.0001285028620260
 -0.0002233255673847 -0.0000399463742211 -0.0001290150272387
 -0.0000413895531422 -0.0002049385850098  0.0000781093224141
  0.0001828986120705 -0.0002043912465729  0.0000071308328289
 -0.0001558672714972  0.0001097630706783  0.0000649455638241
 -0.0000104636752715  0.0001867400306213  0.0001728606045932
 -0.0000658905750401 -0.0000061317696991 -0.0000692948406623
 -0.0000330316772654 -0.0000466766629874 -0.0001521457290369
  0.0001143930154887 -0.0000639729165035  0.0000740999337725
  0.0001601907067830 -0.0001240329912765 -0.0000249255770696
 -0.0000018752496778 -0.0000065453781022  0.0001405080576820
  0.0001030284749866  0.0000099178801495  0.0000043610132099
 -0.0000334689737582  0.0000405784155243 -0.0000925999729393
 -0.0000308470611358 -0.0000730587345558  0.0000688741976144
  0.0001799243211679 -0.0001666062310842 -0.0001503163624711
 -0.0000518334883390 -0.0001724880555457 -0.0001802634915435
  0.0001705409663521 -0.0000258767256543  0.0001581036425138
  0.0000081400531244 -0.0001405242086523  0.0001680917614385
  0.0001031645020474  0.0000432738330069 -0.0002324975239452
 -0.0000175022681147 -0.0001375125910628 -0.0001440461969023
 -0.0000173753932704 -0.0001311710023144 -0.0000198261414990
  0.0000704440719245 -0.0001875360940004  0.0000710211999288
  0.0001120012362471 -0.0003116433797401  0.0000754307737226
 -0.0000445723710166 -0.0003595672565426  0.0000887284059106
 -0.0000030274060602  0.0000448932369592 -0.0000111322536585
 -0.0000071487065693 -0.0000492249271853 -0.0000138225028307
 -0.0001387633939826 -0.0003765580772654 -0.0000054472915791
 -0.0001042351319210  0.0000206830760904  0.0000285877916325
 -0.0000068759705181 -0.0000357907654620  0.0000636441545309
 -0.0000103845714082 -0.0002770943008724  0.0000366820836746
 -0.0000630490810041  0.0002527931920954  0.0001297030585722
 -0.0000257947146163  0.0001485142730995  0.0000608475243012
 -0.0000546552423002 -0.0002056488687912  0.0000957354146341
 -0.0000444733117322  0.0001049256756276 -0.0000605295296422
  0.0000639800947125  0.0000202047920242 -0.0000356449760370
  0.0000108408542638 -0.0000940614562934  0.0000645414306569
 -0.0000122488958519 -0.0000949946234645 -0.0000217295512907
 -0.0001667279017269  0.0001352582745238  0.0001289432451487
 -0.0000252919887484 -0.0000575685184262  0.0000181161844401
 -0.0000115251170376 -0.0001343132633078 -0.0000541491785651
 -0.0001150659725832 -0.0001410378095069 -0.0001161839786363
  0.0000480509311020 -0.0000943643767135 -0.0000308857516824
 -0.0001541861349475  0.0000367545835855  0.0001515362990920
  0.0000593052860958 -0.0000683986412676  0.0001282017361581
  0.0000689815118391 -0.0001463539910985 -0.0001717515713014
  0.0000347988446502 -0.0000013635510486  0.0000001129767549
 -0.0001320966323660  0.0001237828306925 -0.0000658363795620
  0.0000210074593555 -0.0001486908570411  0.0001028712722094
  0.0000923210995193 -0.0000166883309952 -0.0000272228192986
 -0.0000097049026883 -0.0000997311646787  0.0000284322039523
 -0.0002502549773901 -0.0000533014320812 -0.0001084121317429
 -0.0002111936763397  0.0000100067104860  0.0001252112942852
 -0.0000901285155777 -0.0001916847398967 -0.0000112587337013
 -0.0000822192059818 -0.0000040342970269  0.0000702097034004
 -0.0001037915186042  0.0000673581598718 -0.0000135743880363
  0.0000085730426918 -0.0000862074189069 -0.0000137560326153
 -0.0000129696957095  0.0000012340741036 -0.0000167074968132
 -0.0000603195670287  0.0000083788362471 -0.0000150534938935
 -0.0000575082214705 -0.0000525688958519  0.0001015573010504
  0.0000048451834075 -0.0000980188029197  0.0000863161687734
 -0.0000300704148122 -0.0001387472430123 -0.0000358634089372
  0.0000726908513441  0.0000284867583408  0.0000333640642336
  0.0000767454627025  0.0001006765348051  0.0001536208509881
  0.0000370650411252 -0.0000467846950329  0.0000574066498131
  0.0000187780870928  0.0000497640106819  0.0000619877828022
  0.0000540698593555  0.0000494521175004  0.0001113914473918
 -0.0000028728951113 -0.0000092669960477  0.0000325280182304
  0.0001378707836924  0.0001306509410717 -0.0001957727299270
 -0.0000922180922200 -0.0001263422211145  0.0002616055203845
 -0.0001173852519138 -0.0002706956453623  0.0000057132442229
 -0.0000215912989852 -0.0000163108289834 -0.0000721643297134
 -0.0002031153199217  0.0000058715596226  0.0001008262004629
 -0.0000407582296600  0.0000008760250383  0.0000119241536763
 -0.0000708779946591 -0.0000884617354460  0.0001440881894250
 -0.0001020931543529  0.0000305754018159  0.0002773807114118
 -0.0001922941698416 -0.0000553203033648  0.0001756331878227
  0.0000701806316539 -0.0001068670222539  0.0000599463001602
  0.0000070973464839 -0.0000802498643404  0.0002510772412320
 -0.0001990118967420 -0.0002034997130141 -0.0000882474659071
  0.0000414832287698 -0.0001516364351077  0.0001236701328111
 -0.0000600514609222  0.0001258828157379 -0.0000288473197792
  0.0000979990628449 -0.0000502607427452 -0.0000530466056614
 -0.0000766582474631 -0.0000346500403774 -0.0001019312857397
  0.0000342354988072 -0.0000379949781022 -0.0000408142196902
 -0.0000820354438312  0.0000325461432081 -0.0002529202463949
  0.0000663198319388 -0.0001880421577354 -0.0000675688403062
  0.0000760315898166 -0.0000907361509703 -0.0000027144792167
  0.0001875547573438  0.0001114987616165  0.0000151660123197
 -0.0000857932362471  0.0000207360871640  0.0001253638312266
  0.0000018803390280  0.0000248474781556 -0.0000922503941606
 -0.0000482203368346 -0.0001270772697169  0.0000860308349653
 -0.0000560546341463 -0.0000183494762329 -0.0000052109849386
 -0.0000077725647143 -0.0000337225439915  0.0000228426402706
 -0.0000700252234289 -0.0000890176877337 -0.0001577454498843
 -0.0001666417632188  0.0001419480064091 -0.0000378578743101
 -0.0000506358041659  0.0000402033541036  0.0000182610765889
 -0.0001074305116610  0.0000734280534093 -0.0000141469578779
  0.0000455069738294  0.0001590274780132  0.0002046708378138
  0.0000782909311020  0.0000455669118747  0.0000949533487627
  0.0001540382638419 -0.0001230122499555  0.0000745334975966
 -0.0000309306513797 -0.0000490307566317  0.0000478506590707
 -0.0002241334748086 -0.0001710014484600  0.0000434220630230
  0.0001298825137974  0.0000219180151682 -0.0000603748392380
 -0.0000516859761438 -0.0002093011415346  0.0001563047833363
  0.0001409455695211  0.0000011820320883  0.0000814166822147
  0.0000727468413744  0.0001629029930568  0.0001029789453445
  0.0000069777575218 -0.0001541972611714  0.0000853083482286
 -0.0000948600320456 -0.0000983515129072 -0.0000208618852768
 -0.0000785568837458  0.0001846346619192 -0.0000328671168239
  0.0001003926366388  0.0000422922129250  0.0000632866797223
  0.0000237323074951  0.0001328729556703 -0.0000658309959053
  0.0000581574904753 -0.0000732335239452  0.0000304807930212
  0.0000569267865409  0.0001029872002848  0.0000389712145273
 -0.0001162948819655  0.0003175255631120  0.0001303272038455
  0.0000000921082656  0.0000224186593555  0.0001333811728681
 -0.0000321371288588  0.0000096127703756  0.0000635102809329
 -0.0000141783984333  0.0000744893516112  0.0000175616319032
  0.0000310362787253  0.0000460313419975 -0.0000380933195656
 -0.0001009615097027 -0.0000191492722806  0.0000352483082072
 -0.0001279286053053 -0.0000038440385971 -0.0000050807722272
 -0.0000626761730461 -0.0001748906021008 -0.0001413188363895
  0.0000498106690404  0.0000084053597294  0.0000313810481040
  0.0000772809570945  0.0000362323688802 -0.0000416569414278
 -0.0001961639423180 -0.0001315076603169 -0.0000601282677586
 -0.0002291481716219 -0.0000781800277728  0.0002511651742923
 -0.0000077227120527 -0.0000422739084921 -0.0000063162137796
 -0.0001415797642870 -0.0000479296193698  0.0000456430008902
 -0.0000387687890333  0.0000052578586434 -0.0000505934527328
  0.0002532023500089  0.0000902972034894  0.0002095312031333
  0.0000074063324907 -0.0000646943265088 -0.0000385695937333
  0.0000056311972939 -0.0000949799081360  0.0001373819476589
 -0.0000079259989318  0.0000001708033299 -0.0000164823163967
 -0.0000561167256543  0.0000740988570411 -0.0001257622218266
 -0.0000925041438490  0.0000321930112160  0.0000324282770162
 -0.0000694872166637  0.0001922546896920 -0.0000880303250846
  0.0001180050902617  0.0000271719975788  0.0000382767228058
 -0.0000829014947481  0.0000889042720313  0.0001145240178031
 -0.0002318522029553  0.0000216862307994  0.0000290840571123
  0.0000615050482464 -0.0000829370268827 -0.0000573269716931
 -0.0000880084315471 -0.0001855319380452 -0.0001364990279509
 -0.0000437325205626  0.0000142909168595 -0.0000315418758768
  0.0000256374400570 -0.0000051109207050 -0.0000255283312800
  0.0000487665985401  0.0001849228670109 -0.0000094423955848
  0.0000745518020296  0.0000717706049493  0.0000640123966530
  0.0001441165433505 -0.0000371522563646  0.0001822916944988
 -0.0001701637514688  0.0000525075221649  0.0001415998632722
 -0.0001733752821791 -0.0000664095595514 -0.0001267172825352
 -0.0000523280669396  0.0000531345387217  0.0000485412027773
  0.0000232188502047  0.0002154744012818 -0.0000364132597472
  0.0000378887406089  0.0000799595057860  0.0001459222218266
  0.0001523463599786  0.0000417448744882 -0.0000310479074239
  0.0000117282244615 -0.0000597108549048  0.0001450091536407
  0.0000333231484422  0.0001153803781378 -0.0000653346227524
 -0.0000331209741855  0.0001688479857575  0.0001899985786007
 -0.0000470772070500 -0.0002190150528752  0.0000041577263308
 -0.0000251616683639 -0.0001743708997686  0.0000106906502403
  0.0001235488210789 -0.0000952002791526  0.0000259506612071
 -0.0001323557657112 -0.0000591283432437 -0.0000045189338081
  0.0001719902467509 -0.0000311934097205  0.0000867224554032
  0.0000485074651949 -0.0001148940544775 -0.0000580383322058
 -0.0000306015663878  0.0000284007992879  0.0000259994012462
  0.0002176935445968 -0.0000850082990920  0.0001699383557059
  0.0000416659141891  0.0002302170069432 -0.0000064778670465
 -0.0000536352188001  0.0000234536135304  0.0000228051700196
  0.0001143754288766  0.0000447676183016 -0.0001085729236247
  0.0001126038468934  0.0001046313690582 -0.0001869855253694
 -0.0000170628540502  0.0000367143856151  0.0000307812728503
 -0.0000420772255652  0.0000977937660673 -0.0000573040014242
 -0.0000592815980061 -0.0000210216722094  0.0000522430051629
 -0.0000976502018871 -0.0000964442627737  0.0002288714516646
 -0.0000370259198861  0.0000154954921132  0.0000401854085811
 -0.0000040266163432 -0.0000851127420331  0.0000268092826776
 -0.0000108791141179 -0.0000508698137796 -0.0001108914851344
 -0.0000344836494926 -0.0000508073633612  0.0000985090745950
  0.0001348778294463 -0.0001703209542460  0.0000233486681147
 -0.0000842068520563 -0.0001082455972939 -0.0000411350856329
 -0.0000473926893359 -0.0001866495851878  0.0001731879309240
  0.0000522286487449 -0.0000554850432615 -0.0001699308185864
 -0.0001894070941784  0.0001341732882322 -0.0000046930053765
  0.0001046568517002 -0.0000249136971337 -0.0000983906341463
 -0.0000424081410005 -0.0001013150364964  0.0000587529229126
  0.0000335885627203 -0.0001572982474631 -0.0000264422967420
  0.0000753938059462  0.0001083381961901  0.0001784387908136
  0.0000972916503472  0.0001768344611002 -0.0000263468983443
  0.0000535264689336  0.0000106330810041  0.0000718237236959
 -0.0000702822033114  0.0000535128303365  0.0001637410489585
  0.0000319897961189  0.0000607592323304  0.0000884384062667
 -0.0000728760491365 -0.0000807914602101 -0.0000128851722984
  0.0000676226768738  0.0000062395505074  0.0001241571742923
  0.0000072207757878 -0.0000570739398255 -0.0001000462880541
  0.0001330671262240  0.0000066992789033  0.0001447593519672
 -0.0000542475200285  0.0000238600796155  0.0001119050482464
  0.0000515711247997 -0.0000430103927363 -0.0001000308549048
  0.0001655908734200 -0.0000390670436176  0.0000896723403952
  0.0000931053188535  0.0001240972362471  0.0000073205887840
 -0.0000696149887840  0.0000395418821435  0.0002831602463949
  0.0000782216613851  0.0000619238967420  0.0000575606223963
  0.0000118401686309 -0.0000067169014064  0.0000849390293751
  0.0000331672736336  0.0000937937090974  0.0000986515620438
 -0.0000101208081182 -0.0001422293922022 -0.0000209992761973
 -0.0000306593868613 -0.0000667979006587  0.0001320338230372
  0.0000029885288802 -0.0001545231518604  0.0001178274295887
  0.0001167036809685 -0.0000931124970625 -0.0000426780416592
 -0.0002024118554388 -0.0000594082933951 -0.0000064332185864
 -0.0001197806202599  0.0001731660373865 -0.0000211896064091
  0.0000198874792950  0.0000679787160406 -0.0001026645397899
  0.0000681807826242 -0.0000416260751291  0.0000487149154353
 -0.0000920892433683 -0.0000011208593911 -0.0000040813860780
  0.0000625814206872 -0.0000520161737582  0.0001630329186398
  0.0000825206907602 -0.0001101471048602 -0.0000883799038633
 -0.0001958150813602  0.0001044483247285  0.0000301676795442
 -0.0000441380893716  0.0001265564906534  0.0000683896685063
  0.0000592241723340  0.0000195853125868 -0.0000218550622752
  0.0001053707245861 -0.0001888870329357 -0.0000068413715506
  0.0003011294570055 -0.0000504165098807  0.0000099243046466
 -0.0000986364878049 -0.0001627533273990  0.0001174728260637
 -0.0000290730026705 -0.0001028113341641  0.0000259145907068
 -0.0000383219455225 -0.0000004226062881 -0.0000578452383835
 -0.0001164492134591 -0.0000576772682927  0.0001081716617411
 -0.0000066932133167  0.0000969252027773 -0.0000094869722628
  0.0000009817313441 -0.0000367373558839  0.0000768420096137
  0.0000839412583229 -0.0000448630884814  0.0002350852682927
  0.0001151094007477 -0.0000706468563290 -0.0000018218186790
  0.0000540163816984  0.0000586624774791  0.0001504735652484
  0.0000188676352501  0.0000688404600320  0.0000044132346804
  0.0001435602321524  0.0000922030179811  0.0000842840178031
 -0.0000007387597365 -0.0000088544284850  0.0000103601654976
 -0.0001314258287342 -0.0000806396410895  0.0001012105935553
 -0.0000883461662809 -0.0000095569598006 -0.0001371508093288
  0.0001128342674025  0.0001188180224319 -0.0001528391440271
 -0.0001235990685419 -0.0001984627637529 -0.0000285750144205
 -0.0000744965298202  0.0000069661647143  0.0000319047702332
 -0.0001173795093466  0.0000772213779598  0.0000802419683105
 -0.0000645220494926  0.0000545924329713  0.0001525329934129
  0.0001300734541570 -0.0000231065830158  0.0000778347559195
 -0.0002175883838348  0.0001563051422468  0.0000861212803988
 -0.0001450274580737 -0.0000009873877728 -0.0001143424091152
 -0.0002347532761260 -0.0000551379768560  0.0001743956645896
 -0.0001258063678120 -0.0000146359374755 -0.0001243908249955
  0.0000775282463949 -0.0001904325013352 -0.0000592880583942
  0.0000919923375467 -0.0000567379996439 -0.0000974007591241
 -0.0001047950322236 -0.0000635720135304  0.0001937635492256
  0.0000256749103080 -0.0000131791199573  0.0001343800206516
 -0.0001572113911341 -0.0000325856233577 -0.0000402392451487
  0.0000378417233399  0.0000386076382411 -0.0001090660665836
  0.0000956001053943 -0.0000231537438490  0.0000506616457184
  0.0000057365375111  0.0000011838661207 -0.0001414089229126
 -0.0000530153804522  0.0000436470998754  0.0002062130760192
  0.0001228568417305  0.0000128067503650 -0.0000088735943030
  0.0000599315848318  0.0001081167484422  0.0000169288727791
  0.0000775296820367  0.0001088776385971  0.0002026081794552
  0.0000457115527862 -0.0000275556369592  0.0001535601951220
 -0.0002056531757166 -0.0001136253060353 -0.0000732274224675
 -0.0000902333174292  0.0000495238995905 -0.0000585242969557
 -0.0001218924493502 -0.0000736807263664  0.0000586998041659
  0.0001210730567919 -0.0001405252853837 -0.0000142096595336
  0.0000644132996261  0.0001312890838526 -0.0000608798262418
  0.0000136690686131 -0.0000230140200107  0.0000295497793128
 -0.0000913814719601 -0.0000867404009258 -0.0000487752123910
  0.0002078288908670 -0.0000079286907602 -0.0000628523980773
  0.0001582023428877  0.0000368644101834 -0.0000755980259925
 -0.0001492496806124 -0.0000035866100766 -0.0001115831055724
  0.0001072754623464 -0.0000685935296422  0.0000177191935909
 -0.0001780468606017  0.0001099102239630  0.0001615753833007
  0.0001145437578779  0.0001091841481218  0.0000496563375467
  0.0000332774950329  0.0000371210311554 -0.0000491050510949
  0.0000119510001780 -0.0000696928723518  0.0000557097212035
 -0.0002335889706249  0.0001091206209720  0.0000326777556703
 -0.0001714838241054  0.0001682873676340 -0.0001029423364785
  0.0001331877201353  0.0000282800977034  0.0001643878055902
  0.0000200577823037  0.0000939946989496 -0.0000195356752715
 -0.0000254073425672 -0.0000251314839950 -0.0001363127534271
  0.0001320036745594 -0.0000770982716753 -0.0000239363480862
 -0.0001454592273456  0.0000213178092220  0.0001084368965640
  0.0000320278406267  0.0000340097441339  0.0001116250980951
 -0.0000083768263486 -0.0000105826181948  0.0000863251415346
 -0.0001227107651771 -0.0000437806145629  0.0000484938265978
 -0.0000761604386683  0.0001203118077265  0.0000875601523945
  0.0000318162270251 -0.0001643533501869 -0.0001387648296244
  0.0000728161110913  0.0000113176667972 -0.0002604092718533
 -0.0000951083980773 -0.0000239456797579  0.0001180255481574
  0.0000355942978814 -0.0000518733273990  0.0000460055004451
  0.0000485580715685 -0.0001176023927363  0.0000520154559373
 -0.0000044494128538  0.0000288226985223 -0.0001055688431547
 -0.0000409265586612  0.0000753274075129  0.0000666267003739
  0.0001241428178743  0.0001082656962792 -0.0000865613046110
 -0.0000260486796511  0.0000843949211323  0.0002813071917394
 -0.0001457495858999 -0.0000172363872530  0.0000337297222005
  0.0001216692070500 -0.0000162378624889 -0.0000701167455937
  0.0000343139925227  0.0001161832608154  0.0001828749239808
  0.0000215705539612 -0.0001885683204558  0.0001695568338971
 -0.0001230729058216 -0.0000021302627310 -0.0000823444657290
 -0.0000011181388499  0.0000428851329891 -0.0000347267754317
 -0.0000093810577889 -0.0000065737320278  0.0000139776957095
 -0.0000473765383657  0.0000363870592843  0.0001944368652306
 -0.0001550977674915 -0.0000362381114474 -0.0000028970390173
 -0.0000443064183728  0.0000479813024746  0.0000112443413922
 -0.0000201768687912  0.0000477002755920  0.0000956442513797
  0.0000054618992345  0.0001630584012818 -0.0001452837201353
 -0.0000324976185152 -0.0001764741150080  0.0000240504457184
  0.0000532694890511  0.0000985668591775 -0.0000597951988606
  0.0000076767715150 -0.0001500428727079  0.0001165726786541
 -0.0002278912672245 -0.0001108634901193  0.0000022812671248
  0.0001851163197436 -0.0000646555641802 -0.0000223065357308
 -0.0000033178220402  0.0000119779902439 -0.0000365790763753
  0.0000411795905288  0.0001708410154887 -0.0000224729625067
 -0.0000351088356062 -0.0000432372241410  0.0000063763312800
  0.0001162320726366 -0.0000506641580915  0.0000567028264198
  0.0000745902054477 -0.0001379712786185  0.0000139087131209
  0.0002659702303721  0.0001186493345202  0.0000775619839772
  0.0000806356930746 -0.0000386263015845  0.0001487834559373
  0.0001693454356418  0.0000476927384725  0.0000555137560976
  0.0001849670129963  0.0000322500061955 -0.0000712616699306
  0.0000730271504362  0.0001066549061777  0.0001324706170554
 -0.0001284612284137 -0.0001233065565248  0.0000372577760370
  0.0002046098230372  0.0000144151716575 -0.0000439101812355
  0.0000513040954246  0.0000230960669396 -0.0001945840185152
 -0.0000239480126758 -0.0000732446501691  0.0001017604443653
 -0.0001206355449528  0.0000228965486203 -0.0000429429175717
  0.0000619375353391  0.0001291456706427 -0.0000175052829624
 -0.0000905251116254  0.0000849820986292  0.0001297945807370
 -0.0001051011828378  0.0000448702666904  0.0001932180053409
 -0.0001071236432259 -0.0000380664012818  0.0000260416450062
 -0.0001053958483176  0.0001826326594267  0.0000872999423180
  0.0001168346832829  0.0000106388953534 -0.0001190484429411
 -0.0002090122186220 -0.0001099647783514  0.0001308347032224
  0.0000640350080114  0.0000408429325263  0.0000365324180167
 -0.0001221609143671 -0.0000919374242478  0.0000696250382767
  0.0000298143322058  0.0001001252483532  0.0001486919337725
  0.0002942179184618  0.0000444618265978  0.0001476331479437
 -0.0001014984397365  0.0000266806132811  0.0000207985734734
 -0.0000172640592487  0.0000742022232508  0.0001533233142247
 -0.0000336881962613 -0.0000873835684529  0.0000311795198861
  0.0002331399736514  0.0001320514096493  0.0001576998682571
 -0.0001961926551540 -0.0000438330154887  0.0000600467950863
  0.0000035896787609  0.0001243445255474 -0.0001191496556881
  0.0000256298311554 -0.0001230926458964  0.0001018132042015
  0.0001052034723162  0.0000595525753961 -0.0000089583330604
  0.0000168064484244  0.0001272470343600  0.0000566227893894
 -0.0000762950300872  0.0000738070628449  0.0000690543706605
 -0.0000107462454691 -0.0001349356140288  0.0000573574790814
 -0.0001239490062311  0.0000331725137262 -0.0000540992900125
  0.0001487145451309 -0.0002446132640199  0.0000773340758412
  0.0000070971670287 -0.0000544711212391  0.0000861848075485
 -0.0001058724813958 -0.0000336678460388  0.0001283169464127
 -0.0000293217993947  0.0000616866569343  0.0000668327149724
 -0.0000504839850454  0.0000637966914723  0.0001603938500979
  0.0000286164685775  0.0000622465572370 -0.0000472728132455
 -0.0000347376504184  0.0001211405319566  0.0001279153256187
  0.0000600905821613  0.0000560600178031  0.0001489485547445
  0.0001564950058750  0.0000400371785651 -0.0001695571928075
 -0.0000023233206623  0.0001698690859890  0.0003019064981307
  0.0000805111511483  0.0000387741726900  0.0000831717543173
  0.0000263110072993  0.0000354848301941  0.0001066857724764
  0.0002291474538010  0.0000613313355884 -0.0000800714858465
 -0.0000252212474987 -0.0001447388940716  0.0002664802421221
  0.0001086149161474  0.0000013307286879 -0.0000687553982553
  0.0000571022937511  0.0000686010667616  0.0000508314103614
 -0.0000758316766957  0.0000509509275414  0.0000811690340039
 -0.0000072273797401 -0.0000649480761973  0.0000552050931102
 -0.0000472832216486  0.0000330182181236 -0.0000613625607976
  0.0000532795385437 -0.0000828024354638  0.0000044565551718
 -0.0000022982041090  0.0000634420879473  0.0000576151767848
  0.0000064623262240  0.0000454240655154  0.0000182600357486
  0.0001254384846003  0.0000021927454513  0.0001040090183372
 -0.0001040079416058 -0.0000452342018871  0.0001254155143315
  0.0001720412120349 -0.0001043291664590 -0.0001260134591419
  0.0000528362841374 -0.0000429199473028 -0.0001949870749510
  0.0000066560660851 -0.0000205261604415 -0.0001337242912587
  0.0000540425821613  0.0000384540245683  0.0001121534142781
  0.0001184271689514 -0.0000713208901549  0.0001058042884102
 -0.0000168137701976  0.0000098460621684 -0.0001879488410183
 -0.0000819216692184  0.0001426238347873 -0.0001763933601567
  0.0000386198411964  0.0000100216411608  0.0001272904625245
  0.0000758646964572  0.0000715348007833 -0.0001361210952466
 -0.0000156373335232 -0.0000126609968310  0.0000946109481930
  0.0000125680031333  0.0002387041623643  0.0000024603777960
  0.0001016409271853 -0.0000558080626669  0.0000316265428521
 -0.0001523370283069 -0.0001781182837814  0.0000251492859534
 -0.0002299004479259  0.0000313253093110  0.0000472250781556
  0.0001639201452733  0.0001504800256365  0.0002319354701798
  0.0002134921388642 -0.0002132620772654  0.0000955631376179
  0.0001455672593911  0.0000691537888553 -0.0000002051094264
  0.0000207175314937  0.0001063774683995 -0.0000243224639487
 -0.0001024829311020  0.0001858994623464  0.0002032707281467
 -0.0000758237806658 -0.0001151266284494 -0.0000100986633434
  0.0000451821598718  0.0000532396994837  0.0002539768787609
 -0.0000261798973117 -0.0000619816813246 -0.0000496312138152
  0.0000243443933772 -0.0000732704917216  0.0002030255923091
  0.0000508450489585  0.0000743095374755  0.0000791695438846
 -0.0000835496870215  0.0001129742424782 -0.0000724859134769
 -0.0000277339436710 -0.0000154482953890  0.0001280872437244
 -0.0000063455008724  0.0000441452675806 -0.0000962070229660
 -0.0001476414028841 -0.0001641340559017 -0.0000857516026349
  0.0000278848296244  0.0001020263970091 -0.0000914012120349
  0.0000936440434396 -0.0001106782923269  0.0001123404066228
  0.0002366630386327 -0.0000093149823749 -0.0001627378942496
 -0.0000409832665124 -0.0000223822658359 -0.0000842657133701
 -0.0000112505505430 -0.0000637747979348  0.0000152728240698
  0.0000886878490297  0.0000274331767135 -0.0000461533715506
  0.0000494528353213  0.0000456056742033 -0.0001415600242122
 -0.0000565309083140  0.0000866700544775  0.0000274850392736
  0.0001937007398967 -0.0000506541085989  0.0000185325564536
 -0.0000974413160050 -0.0000001456950315  0.0001613582424782
 -0.0001589474409827  0.0000061185259035  0.0001264656863094
 -0.0001676384575396  0.0001351344504184  0.0000064412222895
 -0.0002086454121417  0.0000317485724052 -0.0000563281239096
  0.0000221965655688  0.0000756712437244 -0.0000052558846359
 -0.0001218027217376 -0.0000852415908848  0.0002319677721203
 -0.0001201212262774 -0.0000112090604949  0.0000042418190493
  0.0000147707083497  0.0000333355667438  0.0001636929549582
  0.0000475502510237 -0.0000085900191561 -0.0000317071182482
 -0.0000328369324550 -0.0001581610681859  0.0001174146825708
  0.0002544531529286 -0.0000533208132455  0.0000520678568631
 -0.0002055634481040 -0.0000388262147054  0.0001778882221827
 -0.0001924309147232  0.0000451067886772 -0.0001188628862382
 -0.0000441072230728 -0.0001273428634502 -0.0001592586163432
 -0.0001128217055368  0.0000726574726722  0.0003441595898166
  0.0000606389973295  0.0000192219875378  0.0000044595341285
 -0.0000010721301193 -0.0000611396774079  0.0002215245547445
  0.0000190246585722  0.0000259895670999 -0.0000653403653196
  0.0000240651610468  0.0000254957781022  0.0001458163432437
  0.0001615710763753  0.0000208180264198  0.0002462782495994
 -0.0000119558813602 -0.0001088589752537  0.0001174954374221
  0.0000439715549226  0.0000283874119281  0.0002135197749688
  0.0001239421869325 -0.0001054945486915 -0.0000719252953534
  0.0001164018372797 -0.0000175715737226  0.0000312857214883
  0.0000996658429767  0.0000686857696279 -0.0000122857200641
 -0.0000483158070144 -0.0001147792031333 -0.0000365270343600
 -0.0001642033256187 -0.0001460751176785 -0.0002053506142069
  0.0000499980202955 -0.0001140294392024  0.0000485368958519
 -0.0000558138052341  0.0000651286081538  0.0000902480327577
  0.0002323252469290 -0.0000771255488695 -0.0000796271547089
  0.0000663381363717  0.0001888457582339  0.0001775845839416
 -0.0000004629011643 -0.0002306319074239  0.0000222766743813
  0.0001412743314937  0.0000909087868969  0.0000465313042549
 -0.0000222775716575 -0.0000037814446146  0.0000514081794552
 -0.0000040334356418  0.0001133076702866 -0.0001361042264554
  0.0000100910903329 -0.0001044357628627 -0.0000448508855261
  0.0000837198105750 -0.0000600923767135  0.0001412976606730
  0.0002006973402172  0.0000652811450952  0.0002880507601923
 -0.0001385903991455 -0.0000858538921132  0.0000511214100053
 -0.0001217736499911 -0.0000398552109667  0.0002328115705893
 -0.0000600776613851 -0.0000902853594445 -0.0000981017112338
 -0.0001191772917928  0.0000775225038277 -0.0000545098835677
 -0.0000398465971159 -0.0000148846624177 -0.0000518930674737
 -0.0000411257539612 -0.0000367380737048  0.0000234132361047
  0.0002325391575574  0.0000608503955848  0.0000400526117144
 -0.0001119391447392  0.0001896748413744 -0.0000544976806124
 -0.0000232491063557 -0.0000375000405911 -0.0000157290710344
  0.0001444420751291 -0.0000513500359623  0.0000898316966352
  0.0001802997414990  0.0000611482912587  0.0000094778918284
  0.0000044951021542 -0.0001037516795442  0.0001408131315649
  0.0000536833128004  0.0000380997799537  0.0001751292775503
  0.0000204390528752  0.0000720821392202 -0.0000796407933060
 -0.0000029757732028 -0.0001775924799715  0.0001179182339327
 -0.0000709390094356 -0.0000309041637885  0.0002438308392380
  0.0000794810781556  0.0002776620972049  0.0001085582082962
 -0.0001773258095069 -0.0000579450154887  0.0001890054733844
  0.0000681929855795 -0.0000860886195478  0.0000064556863806
  0.0000018750558661  0.0001156427416771  0.0001020235257255
  0.0000523811856863 -0.0000190300781200  0.0000603457674915
  0.0001190369578067  0.0001318371401104  0.0000106281998220
  0.0000769805490475  0.0000904411265800 -0.0000022011152430
  0.0000171266683283  0.0001033615438846 -0.0001070511433149
 -0.0000191385408581  0.0000868513042549  0.0000213629242656
  0.0001198211771408 -0.0000745503663878  0.0000373184319032
  0.0000408569300338  0.0001613151732241 -0.0001811808666548
  0.0001482271447392 -0.0000121302400570  0.0000027143894891
 -0.0000412553206338  0.0000855778899769  0.0001305884906534
 -0.0000485336656578 -0.0000591832565426  0.0000052717125868
 -0.0000539166045932 -0.0000266182346448 -0.0001621557414990
 -0.0000634428057682  0.0000341730483888 -0.0000483168837458
  0.0000688454847784 -0.0000600231069966  0.0000054729895674
  0.0001406857183550  0.0000605919800605  0.0000504760890155
 -0.0002401954352857 -0.0001668944361759  0.0000651781377960
 -0.0000365456977034  0.0000273520629518  0.0001316189225565
 -0.0000753726302297  0.0000112314565070  0.0000035663208688
 -0.0000067759421755  0.0000733526822147  0.0000389927491544
 -0.0000809953213459  0.0000374361545309  0.0001281934812177
  0.0000599236888019  0.0000490192714972  0.0001643210482464
  0.0000082552274880  0.0001084939633256  0.0000471902638419
 -0.0001644028798291 -0.0001073913904219  0.0001794566608510
 -0.0000422473491187  0.0002463798212569 -0.0000256951169664
 -0.0000542521858643 -0.0000824198369236  0.0000351992092576
 -0.0000385157571657  0.0001149450197614  0.0000171216794730
  0.0000721399238027  0.0000380620943564  0.0000006409925298
  0.0001365758347873 -0.0000752444991989  0.0000387791974364
  0.0002044038084387 -0.0001052095737938  0.0001374576777639
 -0.0000437580032046 -0.0000164352632366  0.0000376877507566
  0.0001176156724230  0.0001563349318141  0.0000440049335944
  0.0000695256200819  0.0000066151144027 -0.0000686290617767
  0.0000604441089550 -0.0001050150443297  0.0000810157792416
 -0.0000336819512195  0.0000391363133345 -0.0000163835442407
  0.0002559343763575 -0.0001026422873420 -0.0000027008765106
  0.0000707247398967  0.0001027352451487  0.0001131389823749
  0.0001512416336122  0.0001668115278618  0.0001434575837636
  0.0000575462659783 -0.0000727009008367 -0.0000327512964216
 -0.0000728939946591  0.0000653260089015  0.0000205654611358
 -0.0000158465065337  0.0000111974676874  0.0000318881885704
 -0.0000653683603347 -0.0000050929751825  0.0002250469019049
 -0.0000753216649457  0.0000021951680968 -0.0000298702145629
  0.0000046919645362 -0.0000600116218622  0.0001314147025102
  0.0001146492775503 -0.0000229680076909  0.0000431302688268
 -0.0000902796168773  0.0002902210916860 -0.0000107205474809
  0.0000399140722806 -0.0000966244358198 -0.0000366120961367
 -0.0001976081979704  0.0000226596677230  0.0000525771507922
 -0.0002442733758234  0.0000185240143849 -0.0000666363909560
  0.0000630375958697 -0.0001314121901371 -0.0000769173808083
  0.0000713890831405  0.0000629055168239  0.0000033046284921
  0.0000518115948015  0.0000228429991811 -0.0000782898543707
  0.0000189091970803  0.0002054536215061  0.0000181227166103
  0.0001185190500267 -0.0002041087840484 -0.0000463206238205
  0.0000614253701264 -0.0000557244365320  0.0001304273398611
 -0.0000396387879651  0.0000276063510059  0.0001056140658715
  0.0000056577925583 -0.0000401383913121 -0.0000374928623821
 -0.0001432285988962  0.0000391671796333  0.0000040448848852
 -0.0000848715542104  0.0000225981145807  0.0001623858030977
 -0.0001666101790992  0.0000434726693965  0.0000192967844757
 -0.0001057317884992 -0.0000579712159516  0.0001837215937333
  0.0000663148071925 -0.0000089300150258 -0.0000391883553498
  0.0000319326934663  0.0001354108114652  0.0000712175239452
  0.0001795252127470 -0.0000043019006587 -0.0000433553056792
 -0.0000416167434574 -0.0000970745095247 -0.0000543587822681
 -0.0000330169978280  0.0000331330694677  0.0000802552479972
  0.0000212948389532 -0.0000371612291259  0.0001034021007655
 -0.0001376855858999  0.0000479859683105  0.0001692072551184
 -0.0001161319366210  0.0001277821698416  0.0000194474191917
  0.0001467993989674 -0.0001954163318497  0.0000582608566851
 -0.0001468988171622  0.0000713607292149  0.0001068178515222
  0.0001184939262952 -0.0000495999886060  0.0000571378258857
  0.0001143223101300  0.0000706210147766  0.0001864887933060
  0.0000014538816308  0.0000935866177675 -0.0000787973537476
  0.0000438663941606  0.0001985277265444  0.0001113293558839
 -0.0000410787366922  0.0000118617032580  0.0000930913213459
 -0.0000290698083675 -0.0000467531109133  0.0001931419163254
 -0.0000501161018337  0.0000310152465729  0.0000326294104326
  0.0001190513142247  0.0002125622018871 -0.0000920450973829
  0.0002152267530710 -0.0000125462890511 -0.0000950190293751
  0.0000029642880684  0.0001192871183906 -0.0000433431027239
 -0.0000674166622752 -0.0000435789068898  0.0000883296564002
  0.0000168580956382  0.0000940503300694 -0.0000773118233933
 -0.0000335361617946  0.0001123328695033 -0.0000292447772120
  0.0001062662061599 -0.0000385839501513  0.0001092720811821
 -0.0001609128346092 -0.0001170317251202  0.0001084049535339
  0.0000283383847605 -0.0000959705009792 -0.0000504043069254
 -0.0001794469702688  0.0000681082827132 -0.0000181850952466
 -0.0001404836517714  0.0000124974054477  0.0001075004991989
 -0.0001046511091330  0.0000442238689692  0.0001304305700552
  0.0001344546740253  0.0000067240796155  0.0001918329699128
 -0.0000297552196546 -0.0000841645006231 -0.0001064819113406
  0.0000911108534805 -0.0001822611871106 -0.0000538875328467
 -0.0001410798020296 -0.0001007231931636 -0.0000538932754139
 -0.0000667096086879 -0.0001991493594445 -0.0000847778785829
 -0.0000436273598006  0.0001413511383301  0.0001994655595514
  0.0000144489810219 -0.0000696605704113  0.0001207640348941
 -0.0001040897731885  0.0001071064155243  0.0000935069396475
  0.0001536240811821  0.0001877632843155 -0.0000252060655866
 -0.0001216275734378 -0.0000003620006694  0.0000217503322058
  0.0000501674260281  0.0001018128452911 -0.0002153229410717
  0.0000931760242122  0.0000657577781734  0.0000191488415880
 -0.0000772019967954  0.0000182845493324  0.0000673172440805
 -0.0000293639354816 -0.0000504437870750  0.0000047594755920
 -0.0000508407420331 -0.0000888992472850  0.0002024272885882
  0.0001346768395941  0.0000021135303258 -0.0001531883638953
  0.0001278715385437 -0.0001318425237671  0.0000193741655688
  0.0000974922812889 -0.0000332612363895 -0.0000426342545843
  0.0002908398533025  0.0000270567155421 -0.0000215531109133
  0.0000791573409293 -0.0000718646394873  0.0000532501078868
 -0.0001087993961189 -0.0000445228413744 -0.0000949436581805
 -0.0001079484194410  0.0000216904300516  0.0000880576022788
 -0.0001124825351611 -0.0001341539070678  0.0000399905202065
 -0.0002006994936799  0.0001034946996617  0.0000306700465017
  0.0000634058379918  0.0000568625415702 -0.0000126450253160
  0.0001205346911163  0.0000510209150792  0.0001635583635393
 -0.0000176262716753  0.0000407585885704  0.0000215497730461
  0.0001198660409471 -0.0000496147039345 -0.0000096746824283
  0.0000161524059106  0.0001277473555279  0.0001486416863094
 -0.0000925974605661  0.0000472405113050  0.0000953140537654
  0.0000787532077622  0.0001019323624711  0.0000324596457896
 -0.0001045258493858 -0.0000604846658359 -0.0001568205376536
  0.0000152013649991 -0.0000250294098629  0.0000102983611180
 -0.0001326942182660  0.0000197276923625  0.0001308339854015
 -0.0000148935633968  0.0000539700822503  0.0001077639394695
  0.0001349977055368 -0.0000238929199217  0.0000640016293395
  0.0001441807883212  0.0000213880838882 -0.0000503160149546
  0.0000507865465551  0.0001357560833185  0.0000996184667972
 -0.0001635429303899 -0.0000581998419085 -0.0000202930481040
 -0.0001010609278975 -0.0000223874341463  0.0001176799173936
  0.0000879323425316  0.0000917156175895  0.0001810272529820
  0.0000066379411074 -0.0000037079038633 -0.0000335926901905
 -0.0000978827758590 -0.0001871344732063  0.0001268953021186
 -0.0000012857177283  0.0001891590870571  0.0001307237998932
  0.0001256089670643 -0.0000057869644294  0.0000585530097917
 -0.0000942660352501 -0.0000974477763931  0.0001452420865231
 -0.0000479802257433 -0.0001564874687556  0.0001157988677230
 -0.0000241928613851 -0.0000214435714438 -0.0001063300922200
 -0.0001107378714616  0.0000617842805768 -0.0000389478853481
 -0.0001041665800249  0.0001176756104682  0.0000670674424070
  0.0000177073136550 -0.0000930141555991 -0.0000112422956026
  0.0001331216806124  0.0001459735460210  0.0001124315698772
  0.0000282966075841  0.0000388434424070  0.0000197077728325
  0.0001151277051807  0.0001662397835143  0.0000704372526260
 -0.0000629622246751  0.0000175975947303  0.0000500995919530
  0.0000587934797935 -0.0001168099184618 -0.0000686265494036
 -0.0001538182517358 -0.0000124483782802  0.0000403889108065
 -0.0002655560477123 -0.0000687230963148  0.0000929545764643
  0.0000572562663343 -0.0000725605668506  0.0002236464333274
  0.0000081964738472 -0.0000484188143137 -0.0000608410639131
 -0.0000167189819477  0.0000275117781022  0.0001889480477123
 -0.0002266433355884 -0.0000766586063735  0.0000021413530639
  0.0000515829688446 -0.0001333280541214 -0.0000090313713370
 -0.0000809902965996 -0.0000347590414812  0.0000543361709097
  0.0000504915221649  0.0001137860979170 -0.0000644463193876
 -0.0000707344304789 -0.0000782984682215  0.0002119455937333
  0.0000080351435998 -0.0001405475378316  0.0000075702827844
  0.0000542783863272 -0.0000202336484244  0.0000537866790101
  0.0000045552555457 -0.0000811001231974  0.0000986440249243
  0.0001294345935553  0.0000685608687912  0.0001303440726366
  0.0000231396386683 -0.0002610064988428 -0.0000065181726900
  0.0000024058449421 -0.0001779944596760  0.0000523499604771
  0.0001220715456649  0.0001336080042727  0.0001803905458430
 -0.0000866144233577  0.0000002264850561 -0.0001582206473206
  0.0001516755563468  0.0000135819251558  0.0002245939569165
 -0.0000749512693609  0.0000755287562756 -0.0000451028406623
  0.0000568977147944 -0.0000483728737760  0.0001202597657112
 -0.0000567588164501 -0.0001877833833007 -0.0001239317785295
  0.0000563550421933 -0.0000806780445077  0.0000282445296778
  0.0000339083519316 -0.0001665951048602 -0.0001894167847605
 -0.0001654573587324 -0.0000320926598540  0.0000588982816450
  0.0000259216253516  0.0000264900318319 -0.0000903740103258
 -0.0000935500089015  0.0000595708798291  0.0000139407279331
  0.0002656798718177  0.0000478097432793 -0.0000576367114118
 -0.0000005192644615  0.0001209259035072 -0.0000483409307459
 -0.0001040000455759  0.0000889505714794  0.0002160400441517
 -0.0000463152401638  0.0001070059205982  0.0000781344461456
 -0.0000278852244259  0.0000219642428343  0.0002597352380274
  0.0000789229724052 -0.0000388782567207  0.0000734865558127
 -0.0002008064489941  0.0000702900993413 -0.0000386894698237
 -0.0001484159316361 -0.0000308136106819  0.0002677866761617
  0.0002387727142603 -0.0001150239800605 -0.0000058641301763
  0.0001915623514331  0.0000908865344490  0.0000444370617767
 -0.0001165098693253 -0.0000832600462881 -0.0000454136571123
  0.0000728753313156 -0.0000922773124444 -0.0000648709104504
 -0.0002144525832295 -0.0001226820523411 -0.0000564293366566
 -0.0000360877279687 -0.0000747409478369 -0.0000847172227168
 -0.0001385659932348 -0.0000669077272565 -0.0000513959764999
  0.0000237896254940  0.0000529256528396 -0.0000288999360513
  0.0000165989981841 -0.0001058100309774 -0.0000028562524337
 -0.0000976900409471  0.0000590009300338 -0.0001082588769806
 -0.0000242540915079  0.0000200642785829 -0.0001113971899591
  0.0001187756709988 -0.0001488764137440  0.0001611891956560
 -0.0001610097404308 -0.0002135352081182  0.0000033414598825
 -0.0000013110065587 -0.0000568205490475 -0.0000781147060709
 -0.0000534593526794  0.0001149884479259 -0.0001954396610290
 -0.0001503457931280 -0.0002507215609756  0.0001017051721560
 -0.0000696508798291  0.0000946744753427  0.0001011316332562
  0.0002673520356062  0.0001513022894784  0.0001157507737226
  0.0001174265266156 -0.0001212700986292  0.0002309911767848
 -0.0000051318092932  0.0002063961203489  0.0001446326565782
 -0.0000805430941784 -0.0001776305244793  0.0001878436802564
  0.0000122801569521 -0.0002039400961367  0.0000732399843333
  0.0000776441744704  0.0001015913975432 -0.0000115994473918
 -0.0000840561096671  0.0000027987442122  0.0000342026943920
 -0.0000775964393805  0.0001119064838882  0.0001263350429055
  0.0002184063407513  0.0000520111490119  0.0000694606572904
  0.0000899307559195 -0.0001955735346270 -0.0000134837990386
  0.0002678911191027 -0.0001347870251024  0.0000077847676696
 -0.0000274819885348  0.0000949817026883  0.0002184088531244
 -0.0001117001103792 -0.0000809138486737  0.0000763359458786
 -0.0000877503749332  0.0001320790457540  0.0000972554003917
 -0.0000956255880363  0.0001096238134235  0.0001785604614563
  0.0000070424690760 -0.0001230014826420  0.0000703489606552
 -0.0001318744667972 -0.0000336823101300  0.0001714249627915
 -0.0000881760427274 -0.0000482910421933  0.0001195505586612
 -0.0000686872052697  0.0001352342275236  0.0001765121595158
  0.0000842301812355 -0.0000721176713548 -0.0000003985054513
  0.0001813807797757  0.0001039372362471 -0.0000324807138330
 -0.0001114818928254 -0.0000532594395585 -0.0001346904781912
 -0.0000757347708741  0.0000973411799893 -0.0001361243254406
 -0.0000008373739719  0.0000794706697525 -0.0000261002191917
  0.0000566220715685 -0.0000699441096671  0.0001908714488161
  0.0000580128495638 -0.0000112508017803 -0.0000057433209186
 -0.0001672041758946 -0.0000597402855617 -0.0000302787264376
 -0.0000752107616165  0.0001322836247107 -0.0000225196567563
  0.0000177868482108  0.0002500816236425  0.0000124314018159
  0.0000274470306569 -0.0000075062890511 -0.0000235595280043
  0.0000945807997152  0.0001205892455047  0.0000570646081538
  0.0001995595940894  0.0001414038981663  0.0001380563403952
 -0.0001189863514331  0.0001478592615275  0.0000228571402528
 -0.0001435634623464  0.0001022460502047  0.0000897591967242
  0.0001428775844757  0.0000944332875200  0.0001805168823215
 -0.0000049617575218 -0.0000013658624319 -0.0000606827844045
 -0.0000122393488339 -0.0000422017674915  0.0001973390151326
 -0.0001138227067830  0.0000129585335944 -0.0001946184739185
  0.0000051842102190  0.0000343482325797  0.0001683045953356
 -0.0000732335239452 -0.0001108139604771  0.0002356609606552
 -0.0000791864126758 -0.0000417280056970 -0.0000741742282357
 -0.0000299125659961 -0.0000072600764821  0.0003430731678832
  0.0000023008708136 -0.0000050582326509  0.0001653044628805
  0.0001276457838704 -0.0000409757293929 -0.0001106004087591
  0.0000418733644294 -0.0001100878846359 -0.0000242931768560
 -0.0000723717799537  0.0000038101933416 -0.0000360959829090
  0.0001748855773545 -0.0000985040498487  0.0001281895332028
  0.0000274098834253  0.0001297001872886 -0.0000070033837280
  0.0000042351433149  0.0001295164251380  0.0001202443325619
 -0.0001510252106106 -0.0000588311653908  0.0000361297204914
  0.0001248534605661  0.0000801238867723  0.0000685199529998
 -0.0000615542189781 -0.0000636549218444 -0.0000616938351433
 -0.0000095730389888  0.0001070809328823  0.0002302625885704
 -0.0001289224283425 -0.0001026598739541  0.0001118433156489
  0.0000221716930746  0.0001259158354994  0.0000952526800783
 -0.0000014918723019 -0.0000332352871640  0.0000994501377960
  0.0000570954744526  0.0000671636304077  0.0000580207455937
 -0.0001651687947303 -0.0001547718768026  0.0001941938828556
 -0.0000093739872530  0.0002430706669040  0.0000238966166993
 -0.0000526051458074 -0.0001019212362471  0.0001209976855973
 -0.0000261847426028  0.0000177922677586 -0.0001028296385971
  0.0000436697112338 -0.0000274340022076 -0.0002319031682393
  0.0000531937589461  0.0000351847810575 -0.0001514853338081
  0.0000671611180345 -0.0001937811358376  0.0000271918453267
 -0.0000027178637422 -0.0001127865323126  0.0000026484253374
  0.0001599983307816  0.0000413629937689  0.0001277398184084
  0.0001388186661919  0.0000315901493324 -0.0000030989512694
  0.0000735267537832  0.0000184238424782 -0.0002241783386149
  0.0000120374258145  0.0000206774053053 -0.0001149984974186
  0.0000465112052697  0.0001310001609400  0.0000520822132811
  0.0000372976150970 -0.0000527034872708  0.0001294414128538
 -0.0001385688645184  0.0000839362335766 -0.0000081835171800
 -0.0000620258273100  0.0000784779234467 -0.0000343406595692
  0.0001155853160050  0.0001055634594980 -0.0000665104133879
  0.0001783558824996 -0.0000258654199751  0.0000097437367990
 -0.0001025600968489 -0.0000414491322770 -0.0001127768417305
  0.0001834143663878  0.0001557003781378  0.0000686096806124
 -0.0001086317849386 -0.0000083149501869 -0.0001769633099519
  0.0001510148022076 -0.0001370833341641 -0.0001048133366566
 -0.0001548135104148  0.0000284305888553  0.0000999640975610
  0.0001110612497775  0.0000307368038455  0.0002377114160584
 -0.0000782234559373  0.0000615172512017  0.0000191294245327
 -0.0001459010461100 -0.0000626995022254  0.0000891023906000
 -0.0000245116097561 -0.0001036005782446 -0.0000845004408047
  0.0000179229829446  0.0000008592746876  0.0000820817432793
  0.0001559796104682  0.0000280894803632 -0.0000167069943386
 -0.0000202181434930 -0.0000265429711234  0.0000127431155421
  0.0000738454662631 -0.0000820049364429 -0.0001150936086879
  0.0002573592508456  0.0000581320078334 -0.0000220545805946
 -0.0000123887273634  0.0001200591347694  0.0000658442755920
  0.0001170668983443 -0.0000222001905644 -0.0000720128695033
 -0.0002914898401282  0.0000391004222895  0.0000011771293716
 -0.0000940941171444  0.0000668004130319 -0.0000354719453089
  0.0000757125184262  0.0000398878718177 -0.0000893076873776
 -0.0000052004329713 -0.0002463708484956  0.0002266422588570
 -0.0000646975567029 -0.0000013642258002  0.0000597977112338
  0.0001834922499555 -0.0000428854918996  0.0000353089999644
  0.0001748012333986  0.0002456207256543  0.0001030460615987
 -0.0000422204308350  0.0002344977318853  0.0000969399181058
  0.0001909554338615  0.0000217859361225  0.0000429583507210
  0.0001917335517180 -0.0000753510956026  0.0000760348200107
  0.0002125708157379 -0.0000546132497775  0.0001817134897632
 -0.0001068598440449  0.0000410123382589  0.0000241846782268
  0.0001192128239274  0.0000902631069966  0.0000148148184440
  0.0000306585613673 -0.0000286493447748  0.0000008937803383
  0.0001442812832473  0.0000666740765533 -0.0001448670251024
  0.0001111000121061  0.0000665742994481 -0.0000195727866121
 -0.0000491710906178  0.0001091880961367  0.0000137194596404
 -0.0001280032586790 -0.0000572257589461 -0.0000698612013530
 -0.0000587758931814  0.0000819568424426  0.0000667350913299
 -0.0000082705170732 -0.0001230721880007  0.0001369002898344
 -0.0001625297261884 -0.0000996866597828  0.0001156606871996
 -0.0000433459740075 -0.0000390523282891  0.0001181572682927
  0.0001422724614563  0.0000269658394161  0.0001198330211857
  0.0000694692711412 -0.0000644287327755 -0.0000738084984867
  0.0001509024632366  0.0002448372241410 -0.0000397877358020
  0.0000641491415346  0.0000636035976500  0.0000976864518426
  0.0000203053228414 -0.0001479536549760  0.0001649638568631
 -0.0001695191482998  0.0000532856400214  0.0000959647584120
 -0.0000146527344846 -0.0000840370874132  0.0001245516168773
 -0.0001126856784761 -0.0001328614705359  0.0000343427412498
  0.0001001073028307  0.0000526715442407  0.0000383854726722
 -0.0001315586256009  0.0001359861449172  0.0001630512230728
  0.0000783645077443  0.0000644958490297  0.0000658284835321
 -0.0001251201310308 -0.0001250953662097 -0.0000400777354460
 -0.0000199706747374  0.0002124150486025  0.0000829646629874
  0.0001764730382767  0.0000421604927897 -0.0000878469218444
 -0.0000246066492434  0.0002215945422824 -0.0000260606313691
  0.0000931652568987 -0.0000732159373331  0.0001560880014242
 -0.0001175639893181  0.0002431166074417 -0.0000580006466085
  0.0000502169556703 -0.0001859102296600  0.0000307737716219
 -0.0000779169464127 -0.0000329452157379  0.0001816395542104
  0.0000819737112338 -0.0002723983165391 -0.0001688659312800
  0.0000145709387929  0.0000791009919886  0.0001607215353391
 -0.0000921664091152  0.0000781864881609 -0.0002200009798825
  0.0000172979403952  0.0000173666717465  0.0001118163973651
 -0.0000571948926473  0.0001507732554745  0.0000504333786719
 -0.0001702588627381 -0.0000800797407869  0.0000974420338259
 -0.0001074326651237 -0.0000436912458608  0.0001599121922735
  0.0001337705907068 -0.0000321600273456  0.0002521532547623
 -0.0000872224176607 -0.0001675810318675  0.0000229491648923
  0.0000640106021008 -0.0000597614612783 -0.0001233004550472
  0.0002422645540324  0.0000100237587324  0.0000758506989496
  0.0000986666362827 -0.0000404470542994  0.0001194001751825
 -0.0000217223371907  0.0000434593897098 -0.0000506627224497
 -0.0001548806266690 -0.0000977783329179 -0.0000227251329891
 -0.0000449219497953  0.0001122435008011 -0.0001972683097739
 -0.0000258431316361 -0.0000011568329856 -0.0001228073120883
  0.0001360320854549 -0.0001225338223251 -0.0000905089606552
 -0.0000561350300872 -0.0000711098508100  0.0000798823400392
 -0.0000310765125868  0.0001153423336301  0.0001446839807727
 -0.0001532633761795  0.0000023991046039 -0.0000053850565070
 -0.0001458967391846 -0.0000833609001246 -0.0001396229845113
 -0.0001211731928075  0.0000440386711768  0.0000873911055724
  0.0000326893843689  0.0000723437849386  0.0002823810518070
  0.0001306039238027  0.0000932689820189  0.0001487676638775
 -0.0000504552722094 -0.0000884007206694 -0.0000163635170376
  0.0000396046914723  0.0000913599373331  0.0000219685138686
 -0.0000719008894428 -0.0001104798148478 -0.0001276418358554
 -0.0000390645312444  0.0001051596852412  0.0001212747644650
  0.0000169508022076 -0.0001350422104326 -0.0001149356880897
 -0.0000010842577034 -0.0000807031682393  0.0000602517329535
 -0.0000357915550650  0.0000646918141357  0.0000693084792594
 -0.0000035651221079  0.0001276465016913  0.0001334845390778
  0.0000979890133523  0.0000825831411786 -0.0000116555450952
 -0.0001973081488339  0.0001097117464839 -0.0000422161239096
 -0.0000552696969913  0.0001666356617411  0.0001070550913299
  0.0000426809129429  0.0001569766636995  0.0000212459194588
  0.0000627414947481 -0.0002722468563290 -0.0001088094456115
  0.0000850043510771  0.0002397751511483 -0.0000628646010326
 -0.0000328823705181 -0.0000790751504362 -0.0000500816464305
 -0.0000060691757166  0.0000203913536763  0.0000073026073705
 -0.0000405755442407  0.0000153475492256 -0.0000166654683995
  0.0000712437244080 -0.0000873555734378 -0.0000270281821613
 -0.0000837402684707  0.0000506645170020  0.0000244687558483
 -0.0000301804567563 -0.0000928522869859  0.0000160810545131
 -0.0001483032337547 -0.0000886602129250  0.0001050387324194
 -0.0001125991810575 -0.0000310387552074  0.0001686136172334
 -0.0000628868534805 -0.0000888048538366 -0.0001349557130141
 -0.0000319891500801 -0.0000468579127648  0.0001098868947837
 -0.0006733698956276  0.0004089568744711 -0.0011256719153738
  0.0000017061705537 -0.0000449553284672  0.0000836279294997
  0.0001036985607976 -0.0000912440092576 -0.0000074259290012
  0.0000655804764109  0.0000540494014599  0.0000010549024177
  0.0002641780987306  0.0003462051791255  0.0005503782172073
  0.0004818728801128 -0.0002381173709450 -0.0003994366431594
 -0.0001520132910806 -0.0000190432142425  0.0000628021506142
 -0.0000679905600855 -0.0001949554908314 -0.0000339501291081
 -0.0001078210062311  0.0000349205870750  0.0000296778026705
  0.0001295096058394  0.0000927560989852  0.0001160576421577
  0.0004079721579690 -0.0007154112214386  0.0005599689252468
  0.0000359233469824  0.0000092880282001  0.0000615384269183
 -0.0000001566202656  0.0001256976179455 -0.0001235782517358
 -0.0002990836558533  0.0004718456078984 -0.0008428292299013
 -0.0000767573067474  0.0000768122200463 -0.0001720006551540
 -0.0000718969414278  0.0003538979070678  0.0000104876504896
  0.0001451850197614  0.0000493207562756 -0.0000775275285740
 -0.0001542051572014 -0.0000146081936977  0.0000252317276838
  0.0002813548434415 -0.0001223571921016 -0.0000400440936530
 -0.0000542503913121 -0.0000158405486203  0.0001614899626135
  0.0000429547616165  0.0001176831475877  0.0000643497724764
 -0.0004519515937941  0.0002464766939351  0.0005298910239774
  0.0001673570717465 -0.0000323363600498 -0.0000818915207406
 -0.0000575225778886 -0.0001011391703756  0.0001595055467331
  0.0005603682933709  0.0004289448575458  0.0005156801748942
 -0.0000153383970091  0.0000646164429411 -0.0000829822495994
 -0.0002144058674189  0.0012290828095910  0.0006916899294781
 -0.0001611568937155  0.0001275327270785  0.0000383955221649
 -0.0001742445083216  0.0000682813777151  0.0008239806205924
 -0.0000349261860780 -0.0002065335830515  0.0000461817254762
 -0.0000584539505074 -0.0002122585636461  0.0000198740560442
  0.0001849623471604 -0.0002016943934485  0.0000184835292861
  0.0001685963895318 -0.0000994935659605  0.0001217262738116
 -0.0000585953612249  0.0000590780957807  0.0000857537560976
 -0.0000946543763575 -0.0001609559038633  0.0001127739704469
  0.0000559702901905 -0.0000639944511305 -0.0001870224931458
  0.0004100433906911 -0.0005841737658674 -0.0001123808197461
  0.0000529256528396  0.0001034667046466  0.0000026823674987
 -0.0001002114465444  0.0005419582059238  0.0007064978730606
 -0.0000870242990920  0.0000438344511305 -0.0000080527302119
  0.0000133807199573  0.0000725817425672 -0.0001171770838526
 -0.0003242947475317  0.0006322623864598 -0.0003801749619182
  0.0000296395751763 -0.0014417326318759 -0.0001942154595205
 -0.0003709542566996  0.0001004007548660 -0.0001769271266573
  0.0000686147053587  0.0000542862823571 -0.0001076541128716
 -0.0000415578821435  0.0001112554203311  0.0000956499939469
  0.0000552463678120 -0.0000252259133345  0.0000153915516468
  0.0000818204564714 -0.0000604006807905 -0.0000885345942674
 -0.0001463464913963  0.0002505134442877  0.0006558114019746
 -0.0003912182736248 -0.0003150270578279 -0.0000043678735120
 -0.0005017688519041  0.0006477633511989  0.0008813643385049
 -0.0001295070561354  0.0002758361241185  0.0004222280338505
  0.0022012231311707  0.0000572570555712  0.0010162430916784
 -0.0032976452468265  0.0007601913511989 -0.0015981204908322
  0.0009605527729196 -0.0014028745049365  0.0004711369252468
  0.0003055949224260 -0.0006286230465444  0.0000169715987024
  0.0003171648519041  0.0001869765207334 -0.0014308537658674
